*SPEF "ieee 1481-1999"
*DESIGN "tt_um_rebelmike_asic_odyssey"
*DATE "23:38:46 Monday April 20, 2026"
*VENDOR "The OpenROAD Project"
*PROGRAM "OpenROAD"
*VERSION "dcf36133a369abc8f3c5e5738cd4d82e4903c0e0"
*DESIGN_FLOW "NAME_SCOPE LOCAL" "PIN_CAP NONE"
*DIVIDER /
*DELIMITER :
*BUS_DELIMITER []
*T_UNIT 1 NS
*C_UNIT 1 PF
*R_UNIT 1 OHM
*L_UNIT 1 HENRY

*NAME_MAP
*3 clk
*4 ena
*5 rst_n
*6 ui_in[0]
*7 ui_in[1]
*8 ui_in[2]
*9 ui_in[3]
*10 ui_in[4]
*11 ui_in[5]
*12 ui_in[6]
*13 ui_in[7]
*14 uio_in[0]
*15 uio_in[1]
*16 uio_in[2]
*17 uio_in[3]
*18 uio_in[4]
*19 uio_in[5]
*20 uio_in[6]
*21 uio_in[7]
*22 net
*23 net31
*24 net32
*25 net33
*26 net34
*27 net35
*28 net36
*29 net45
*30 net37
*31 net38
*32 net39
*33 net40
*34 net41
*35 net42
*36 net43
*37 uio_out[7]
*38 uo_out[0]
*39 uo_out[1]
*40 uo_out[2]
*41 uo_out[3]
*42 uo_out[4]
*43 uo_out[5]
*44 uo_out[6]
*45 uo_out[7]
*46 _000_
*47 _001_
*48 _002_
*49 _003_
*50 _004_
*51 _005_
*52 _006_
*53 _007_
*54 _008_
*55 _009_
*56 _010_
*57 _011_
*58 _012_
*59 _013_
*60 _014_
*61 _015_
*62 _016_
*63 _017_
*64 _018_
*65 _019_
*66 _020_
*67 _021_
*68 _022_
*69 _023_
*70 _024_
*71 _025_
*72 _026_
*73 _027_
*74 _028_
*75 _029_
*76 _030_
*77 _031_
*78 _032_
*79 _033_
*80 _034_
*81 _035_
*82 _036_
*83 _037_
*84 _038_
*85 _039_
*86 _040_
*87 _041_
*88 _042_
*89 _043_
*90 _044_
*91 _045_
*92 _046_
*93 _047_
*94 _048_
*95 _049_
*96 _050_
*97 _051_
*98 _052_
*99 _053_
*100 _054_
*101 _055_
*102 _056_
*103 _057_
*104 _058_
*105 _059_
*106 _060_
*107 _061_
*108 _062_
*109 _063_
*110 _064_
*111 _065_
*112 _066_
*113 _067_
*114 _068_
*115 _069_
*116 _070_
*117 _071_
*118 _072_
*119 _073_
*120 _074_
*121 _075_
*122 _076_
*123 _077_
*124 _078_
*125 _079_
*126 _080_
*127 _081_
*128 _082_
*129 _083_
*130 _084_
*131 _085_
*132 _086_
*133 _087_
*134 _088_
*135 _089_
*136 _090_
*137 _091_
*138 _092_
*139 _093_
*140 _094_
*141 _095_
*142 _096_
*143 _097_
*144 _098_
*145 _099_
*146 _100_
*147 _101_
*148 _102_
*149 _103_
*150 _104_
*151 _105_
*152 _106_
*153 _107_
*154 _108_
*155 _109_
*156 _110_
*157 _111_
*158 _112_
*159 _113_
*160 _114_
*161 _115_
*162 _116_
*163 _117_
*164 _118_
*165 _119_
*166 _120_
*167 _121_
*168 _122_
*169 _123_
*170 _124_
*171 _125_
*172 _126_
*173 _127_
*174 _128_
*175 _129_
*176 _130_
*177 _131_
*178 _132_
*179 _133_
*180 _134_
*181 _135_
*182 _136_
*183 _137_
*184 _138_
*185 _139_
*186 _140_
*187 _141_
*188 _142_
*189 _143_
*190 _144_
*191 _145_
*192 _146_
*193 _147_
*194 _148_
*195 _149_
*196 _150_
*197 _151_
*198 _152_
*199 _153_
*200 _154_
*201 _155_
*202 _156_
*203 _157_
*204 _158_
*205 _159_
*206 _160_
*207 _161_
*208 _162_
*209 _163_
*210 _164_
*211 _165_
*212 _166_
*213 _167_
*214 _168_
*215 _169_
*216 _170_
*217 _171_
*218 _172_
*219 _173_
*220 _174_
*221 _175_
*222 _176_
*223 _177_
*224 _178_
*225 _179_
*226 _180_
*227 _181_
*228 _182_
*229 _183_
*230 _184_
*231 _185_
*232 _186_
*233 _187_
*234 _188_
*235 _189_
*236 _190_
*237 _191_
*238 _192_
*239 _193_
*240 _194_
*241 _195_
*242 _196_
*243 _197_
*244 _198_
*245 _199_
*246 _200_
*247 _201_
*248 _202_
*249 _203_
*250 _204_
*251 _205_
*252 _206_
*253 _207_
*254 _208_
*255 _209_
*256 _210_
*257 _211_
*258 _212_
*259 _213_
*260 _214_
*261 _215_
*262 _216_
*263 _217_
*264 _218_
*265 _219_
*266 _220_
*267 _221_
*268 _222_
*269 _223_
*270 _224_
*271 _225_
*272 _226_
*273 _227_
*274 _228_
*275 _229_
*276 _230_
*277 _231_
*278 _232_
*279 _233_
*280 _234_
*281 _235_
*282 _236_
*283 _237_
*284 _238_
*285 _239_
*286 _240_
*287 _241_
*288 _242_
*289 _243_
*290 _244_
*291 _245_
*292 _246_
*293 _247_
*294 _248_
*295 _249_
*296 _250_
*297 _251_
*298 _252_
*299 _253_
*300 _254_
*301 _255_
*302 _256_
*303 _257_
*304 _258_
*305 _259_
*306 _260_
*307 _261_
*308 _262_
*309 _263_
*310 _264_
*311 _265_
*312 _266_
*313 _267_
*314 _268_
*315 _269_
*316 _270_
*317 _271_
*318 _272_
*319 _273_
*320 _274_
*321 _275_
*322 _276_
*323 _277_
*324 _278_
*325 _279_
*326 _280_
*327 _281_
*328 _282_
*329 _283_
*330 _284_
*331 _285_
*332 _286_
*333 _287_
*334 _288_
*335 _289_
*336 _290_
*337 _291_
*338 _292_
*339 _293_
*340 _294_
*341 _295_
*342 _296_
*343 _297_
*344 _298_
*345 _299_
*346 _300_
*347 _301_
*348 _302_
*349 _303_
*350 _304_
*351 _305_
*352 _306_
*353 _307_
*354 _308_
*355 _309_
*356 _310_
*357 _311_
*358 _312_
*359 _313_
*360 _314_
*361 _315_
*362 _316_
*363 _317_
*364 _318_
*365 _319_
*366 _320_
*367 _321_
*368 _322_
*369 _323_
*370 _324_
*371 _325_
*372 _326_
*373 _327_
*374 _328_
*375 _329_
*376 _330_
*377 _331_
*378 _332_
*379 _333_
*380 _334_
*381 _335_
*382 _336_
*383 _337_
*384 _338_
*385 _339_
*386 _340_
*387 _341_
*388 _342_
*389 _343_
*390 _344_
*391 _345_
*392 _346_
*393 _347_
*394 _348_
*395 _349_
*396 _350_
*397 _351_
*398 _352_
*399 _353_
*400 _354_
*401 _355_
*402 _356_
*403 _357_
*404 _358_
*405 _359_
*406 _360_
*407 _361_
*408 _362_
*409 _363_
*410 _364_
*411 _365_
*412 _366_
*413 _367_
*414 _368_
*415 _369_
*416 _370_
*417 _371_
*418 _372_
*419 _373_
*420 adj_y\[0\]
*421 adj_y\[1\]
*422 adj_y\[2\]
*423 adj_y\[3\]
*424 adj_y\[4\]
*425 adj_y\[5\]
*426 bclk
*427 cell_clk
*428 cell_rst_n
*429 cell_state\[0\]
*430 cell_state\[1\]
*431 cell_state\[2\]
*432 cell_state\[3\]
*433 cell_state\[4\]
*434 cell_state\[5\]
*435 cell_state\[6\]
*436 cell_state\[7\]
*437 cells\.q\[10\]
*438 cells\.q\[11\]
*439 cells\.q\[12\]
*440 cells\.q\[13\]
*441 cells\.q\[14\]
*442 cells\.q\[15\]
*443 cells\.q\[8\]
*444 cells\.q\[9\]
*445 counter_r\[0\]
*446 counter_r\[10\]
*447 counter_r\[1\]
*448 counter_r\[2\]
*449 counter_r\[3\]
*450 counter_r\[4\]
*451 counter_r\[5\]
*452 counter_r\[6\]
*453 counter_r\[7\]
*454 counter_r\[8\]
*455 counter_r\[9\]
*456 hsync
*457 hsync_r
*458 i_music\.pwm
*459 i_music\.sample\[0\]
*460 i_music\.sample\[1\]
*461 i_music\.sample\[2\]
*462 i_music\.sample\[3\]
*463 i_music\.sample\[4\]
*464 i_music\.sample\[5\]
*465 i_music\.sample\[6\]
*466 i_music\.sample\[7\]
*467 i_music\.thresh\[0\]
*468 i_music\.thresh\[1\]
*469 i_music\.thresh\[2\]
*470 i_music\.thresh\[3\]
*471 i_music\.thresh\[4\]
*472 i_music\.thresh\[5\]
*473 i_music\.thresh\[6\]
*474 i_music\.thresh\[7\]
*475 i_music\.thresh\[8\]
*476 i_music\.thresh\[9\]
*477 lfsr\[0\]
*478 lfsr\[10\]
*479 lfsr\[11\]
*480 lfsr\[12\]
*481 lfsr\[13\]
*482 lfsr\[14\]
*483 lfsr\[15\]
*484 lfsr\[16\]
*485 lfsr\[17\]
*486 lfsr\[18\]
*487 lfsr\[19\]
*488 lfsr\[1\]
*489 lfsr\[2\]
*490 lfsr\[3\]
*491 lfsr\[4\]
*492 lfsr\[5\]
*493 lfsr\[6\]
*494 lfsr\[7\]
*495 lfsr\[8\]
*496 lfsr\[9\]
*497 lfsr_buf\[0\]
*498 lfsr_buf\[10\]
*499 lfsr_buf\[11\]
*500 lfsr_buf\[12\]
*501 lfsr_buf\[13\]
*502 lfsr_buf\[14\]
*503 lfsr_buf\[1\]
*504 lfsr_buf\[2\]
*505 lfsr_buf\[3\]
*506 lfsr_buf\[4\]
*507 lfsr_buf\[5\]
*508 lfsr_buf\[6\]
*509 lfsr_buf\[7\]
*510 lfsr_buf\[8\]
*511 lfsr_buf\[9\]
*512 net1
*513 net10
*514 net11
*515 net12
*516 net13
*517 net14
*518 net15
*519 net16
*520 net17
*521 net18
*522 net19
*523 net2
*524 net20
*525 net21
*526 net22
*527 net23
*528 net24
*529 net25
*530 net26
*531 net27
*532 net28
*533 net29
*534 net3
*535 net30
*536 net4
*537 net44
*538 net46
*539 net47
*540 net48
*541 net49
*542 net5
*543 net50
*544 net51
*545 net52
*546 net53
*547 net54
*548 net55
*549 net56
*550 net57
*551 net58
*552 net59
*553 net6
*554 net60
*555 net61
*556 net62
*557 net63
*558 net64
*559 net65
*560 net66
*561 net67
*562 net68
*563 net69
*564 net7
*565 net70
*566 net71
*567 net72
*568 net8
*569 net9
*570 rom_q\[0\]
*571 rom_q\[1\]
*572 rom_q\[2\]
*573 rom_q\[3\]
*574 timing\.active
*575 timing\.count\[0\]
*576 timing\.count\[10\]
*577 timing\.count\[11\]
*578 timing\.count\[12\]
*579 timing\.count\[13\]
*580 timing\.count\[14\]
*581 timing\.count\[15\]
*582 timing\.count\[16\]
*583 timing\.count\[17\]
*584 timing\.count\[18\]
*585 timing\.count\[19\]
*586 timing\.count\[1\]
*587 timing\.count\[2\]
*588 timing\.count\[3\]
*589 timing\.count\[4\]
*590 timing\.count\[5\]
*591 timing\.count\[6\]
*592 timing\.count\[7\]
*593 timing\.count\[8\]
*594 timing\.count\[9\]
*595 timing\.count_max
*596 timing\.count_rst_n
*597 timing\.vsync
*598 vsync_r
*599 was_cell
*600 was_tt_sq
*601 ANTENNA_1
*602 CG
*603 FILLER_0_24
*604 FILLER_10_1
*605 FILLER_10_110
*606 FILLER_10_113
*607 FILLER_10_140
*608 FILLER_10_169
*609 FILLER_10_195
*610 FILLER_10_203
*611 FILLER_10_222
*612 FILLER_10_238
*613 FILLER_10_259
*614 FILLER_10_319
*615 FILLER_10_335
*616 FILLER_10_4
*617 FILLER_10_54
*618 FILLER_10_75
*619 FILLER_10_78
*620 FILLER_10_93
*621 FILLER_11_127
*622 FILLER_11_139
*623 FILLER_11_189
*624 FILLER_11_197
*625 FILLER_11_212
*626 FILLER_11_250
*627 FILLER_11_253
*628 FILLER_11_267
*629 FILLER_11_29
*630 FILLER_11_340
*631 FILLER_11_57
*632 FILLER_11_70
*633 FILLER_11_92
*634 FILLER_11_95
*635 FILLER_11_98
*636 FILLER_12_1
*637 FILLER_12_110
*638 FILLER_12_130
*639 FILLER_12_146
*640 FILLER_12_149
*641 FILLER_12_165
*642 FILLER_12_169
*643 FILLER_12_172
*644 FILLER_12_175
*645 FILLER_12_198
*646 FILLER_12_243
*647 FILLER_12_261
*648 FILLER_12_278
*649 FILLER_12_304
*650 FILLER_12_335
*651 FILLER_12_337
*652 FILLER_12_340
*653 FILLER_12_36
*654 FILLER_12_39
*655 FILLER_12_49
*656 FILLER_13_102
*657 FILLER_13_13
*658 FILLER_13_133
*659 FILLER_13_141
*660 FILLER_13_144
*661 FILLER_13_147
*662 FILLER_13_154
*663 FILLER_13_164
*664 FILLER_13_167
*665 FILLER_13_193
*666 FILLER_13_197
*667 FILLER_13_215
*668 FILLER_13_251
*669 FILLER_13_29
*670 FILLER_13_62
*671 FILLER_13_92
*672 FILLER_14_11
*673 FILLER_14_110
*674 FILLER_14_113
*675 FILLER_14_120
*676 FILLER_14_195
*677 FILLER_14_223
*678 FILLER_14_225
*679 FILLER_14_236
*680 FILLER_14_276
*681 FILLER_14_337
*682 FILLER_14_340
*683 FILLER_14_55
*684 FILLER_15_1
*685 FILLER_15_119
*686 FILLER_15_13
*687 FILLER_15_141
*688 FILLER_15_145
*689 FILLER_15_159
*690 FILLER_15_177
*691 FILLER_15_197
*692 FILLER_15_22
*693 FILLER_15_259
*694 FILLER_15_277
*695 FILLER_15_299
*696 FILLER_15_320
*697 FILLER_15_323
*698 FILLER_15_331
*699 FILLER_15_334
*700 FILLER_15_337
*701 FILLER_15_340
*702 FILLER_16_1
*703 FILLER_16_10
*704 FILLER_16_105
*705 FILLER_16_121
*706 FILLER_16_13
*707 FILLER_16_16
*708 FILLER_16_22
*709 FILLER_16_220
*710 FILLER_16_223
*711 FILLER_16_238
*712 FILLER_16_306
*713 FILLER_16_329
*714 FILLER_16_332
*715 FILLER_16_335
*716 FILLER_16_337
*717 FILLER_16_340
*718 FILLER_16_4
*719 FILLER_16_50
*720 FILLER_16_7
*721 FILLER_16_74
*722 FILLER_16_82
*723 FILLER_1_1
*724 FILLER_1_111
*725 FILLER_1_113
*726 FILLER_1_149
*727 FILLER_1_164
*728 FILLER_1_167
*729 FILLER_1_169
*730 FILLER_1_172
*731 FILLER_1_180
*732 FILLER_1_195
*733 FILLER_1_197
*734 FILLER_1_200
*735 FILLER_1_210
*736 FILLER_1_213
*737 FILLER_1_218
*738 FILLER_1_221
*739 FILLER_1_225
*740 FILLER_1_237
*741 FILLER_1_251
*742 FILLER_1_258
*743 FILLER_1_266
*744 FILLER_1_281
*745 FILLER_1_284
*746 FILLER_1_287
*747 FILLER_1_29
*748 FILLER_1_290
*749 FILLER_1_299
*750 FILLER_1_306
*751 FILLER_1_322
*752 FILLER_1_325
*753 FILLER_1_328
*754 FILLER_1_331
*755 FILLER_1_334
*756 FILLER_1_337
*757 FILLER_1_340
*758 FILLER_1_78
*759 FILLER_2_113
*760 FILLER_2_154
*761 FILLER_2_163
*762 FILLER_2_166
*763 FILLER_2_169
*764 FILLER_2_195
*765 FILLER_2_238
*766 FILLER_2_249
*767 FILLER_2_252
*768 FILLER_2_274
*769 FILLER_2_277
*770 FILLER_2_298
*771 FILLER_2_328
*772 FILLER_2_331
*773 FILLER_2_334
*774 FILLER_2_337
*775 FILLER_2_340
*776 FILLER_3_1
*777 FILLER_3_120
*778 FILLER_3_148
*779 FILLER_3_151
*780 FILLER_3_159
*781 FILLER_3_170
*782 FILLER_3_173
*783 FILLER_3_176
*784 FILLER_3_182
*785 FILLER_3_189
*786 FILLER_3_192
*787 FILLER_3_195
*788 FILLER_3_197
*789 FILLER_3_202
*790 FILLER_3_205
*791 FILLER_3_225
*792 FILLER_3_228
*793 FILLER_3_250
*794 FILLER_3_260
*795 FILLER_3_281
*796 FILLER_3_304
*797 FILLER_3_307
*798 FILLER_3_323
*799 FILLER_3_333
*800 FILLER_3_64
*801 FILLER_3_85
*802 FILLER_3_96
*803 FILLER_4_1
*804 FILLER_4_113
*805 FILLER_4_135
*806 FILLER_4_151
*807 FILLER_4_169
*808 FILLER_4_203
*809 FILLER_4_213
*810 FILLER_4_219
*811 FILLER_4_222
*812 FILLER_4_267
*813 FILLER_4_302
*814 FILLER_4_311
*815 FILLER_4_321
*816 FILLER_4_342
*817 FILLER_4_55
*818 FILLER_4_57
*819 FILLER_4_85
*820 FILLER_5_1
*821 FILLER_5_114
*822 FILLER_5_139
*823 FILLER_5_146
*824 FILLER_5_164
*825 FILLER_5_167
*826 FILLER_5_175
*827 FILLER_5_178
*828 FILLER_5_186
*829 FILLER_5_189
*830 FILLER_5_192
*831 FILLER_5_195
*832 FILLER_5_197
*833 FILLER_5_200
*834 FILLER_5_203
*835 FILLER_5_211
*836 FILLER_5_220
*837 FILLER_5_235
*838 FILLER_5_238
*839 FILLER_5_258
*840 FILLER_5_261
*841 FILLER_5_29
*842 FILLER_5_318
*843 FILLER_5_342
*844 FILLER_5_71
*845 FILLER_5_81
*846 FILLER_6_1
*847 FILLER_6_143
*848 FILLER_6_153
*849 FILLER_6_16
*850 FILLER_6_165
*851 FILLER_6_169
*852 FILLER_6_172
*853 FILLER_6_175
*854 FILLER_6_189
*855 FILLER_6_221
*856 FILLER_6_225
*857 FILLER_6_266
*858 FILLER_6_279
*859 FILLER_6_281
*860 FILLER_6_284
*861 FILLER_6_342
*862 FILLER_6_68
*863 FILLER_6_88
*864 FILLER_7_107
*865 FILLER_7_126
*866 FILLER_7_129
*867 FILLER_7_138
*868 FILLER_7_150
*869 FILLER_7_169
*870 FILLER_7_172
*871 FILLER_7_195
*872 FILLER_7_218
*873 FILLER_7_250
*874 FILLER_7_259
*875 FILLER_7_27
*876 FILLER_7_279
*877 FILLER_7_305
*878 FILLER_7_309
*879 FILLER_7_330
*880 FILLER_7_341
*881 FILLER_7_72
*882 FILLER_7_81
*883 FILLER_7_85
*884 FILLER_7_91
*885 FILLER_8_123
*886 FILLER_8_132
*887 FILLER_8_145
*888 FILLER_8_165
*889 FILLER_8_169
*890 FILLER_8_172
*891 FILLER_8_197
*892 FILLER_8_200
*893 FILLER_8_217
*894 FILLER_8_272
*895 FILLER_8_279
*896 FILLER_8_298
*897 FILLER_8_305
*898 FILLER_8_326
*899 FILLER_8_342
*900 FILLER_8_40
*901 FILLER_8_49
*902 FILLER_8_57
*903 FILLER_8_79
*904 FILLER_9_116
*905 FILLER_9_136
*906 FILLER_9_139
*907 FILLER_9_149
*908 FILLER_9_166
*909 FILLER_9_182
*910 FILLER_9_221
*911 FILLER_9_258
*912 FILLER_9_27
*913 FILLER_9_277
*914 FILLER_9_299
*915 FILLER_9_40
*916 FILLER_9_63
*917 FILLER_9_76
*918 FILLER_9_93
*919 FILLER_9_96
*920 PHY_EDGE_ROW_23_1_Left_17
*921 PHY_EDGE_ROW_23_1_Right_0
*922 PHY_EDGE_ROW_24_Left_18
*923 PHY_EDGE_ROW_24_Right_1
*924 PHY_EDGE_ROW_25_Left_19
*925 PHY_EDGE_ROW_25_Right_2
*926 PHY_EDGE_ROW_26_Left_20
*927 PHY_EDGE_ROW_26_Right_3
*928 PHY_EDGE_ROW_27_Left_21
*929 PHY_EDGE_ROW_27_Right_4
*930 PHY_EDGE_ROW_28_Left_22
*931 PHY_EDGE_ROW_28_Right_5
*932 PHY_EDGE_ROW_29_Left_23
*933 PHY_EDGE_ROW_29_Right_6
*934 PHY_EDGE_ROW_30_Left_24
*935 PHY_EDGE_ROW_30_Right_7
*936 PHY_EDGE_ROW_31_Left_25
*937 PHY_EDGE_ROW_31_Right_8
*938 PHY_EDGE_ROW_32_Left_26
*939 PHY_EDGE_ROW_32_Right_9
*940 PHY_EDGE_ROW_33_Left_27
*941 PHY_EDGE_ROW_33_Right_10
*942 PHY_EDGE_ROW_34_Left_28
*943 PHY_EDGE_ROW_34_Right_11
*944 PHY_EDGE_ROW_35_Left_29
*945 PHY_EDGE_ROW_35_Right_12
*946 PHY_EDGE_ROW_36_Left_30
*947 PHY_EDGE_ROW_36_Right_13
*948 PHY_EDGE_ROW_37_Left_31
*949 PHY_EDGE_ROW_37_Right_14
*950 PHY_EDGE_ROW_38_Left_32
*951 PHY_EDGE_ROW_38_Right_15
*952 PHY_EDGE_ROW_39_Left_33
*953 PHY_EDGE_ROW_39_Right_16
*954 TAP_TAPCELL_ROW_24_34
*955 TAP_TAPCELL_ROW_24_35
*956 TAP_TAPCELL_ROW_24_36
*957 TAP_TAPCELL_ROW_24_37
*958 TAP_TAPCELL_ROW_24_38
*959 TAP_TAPCELL_ROW_24_39
*960 TAP_TAPCELL_ROW_24_40
*961 TAP_TAPCELL_ROW_24_41
*962 TAP_TAPCELL_ROW_24_42
*963 TAP_TAPCELL_ROW_24_43
*964 TAP_TAPCELL_ROW_24_44
*965 TAP_TAPCELL_ROW_24_45
*966 TAP_TAPCELL_ROW_25_46
*967 TAP_TAPCELL_ROW_25_47
*968 TAP_TAPCELL_ROW_25_48
*969 TAP_TAPCELL_ROW_25_49
*970 TAP_TAPCELL_ROW_25_50
*971 TAP_TAPCELL_ROW_25_51
*972 TAP_TAPCELL_ROW_26_52
*973 TAP_TAPCELL_ROW_26_53
*974 TAP_TAPCELL_ROW_26_54
*975 TAP_TAPCELL_ROW_26_55
*976 TAP_TAPCELL_ROW_26_56
*977 TAP_TAPCELL_ROW_26_57
*978 TAP_TAPCELL_ROW_27_58
*979 TAP_TAPCELL_ROW_27_59
*980 TAP_TAPCELL_ROW_27_60
*981 TAP_TAPCELL_ROW_27_61
*982 TAP_TAPCELL_ROW_27_62
*983 TAP_TAPCELL_ROW_27_63
*984 TAP_TAPCELL_ROW_28_64
*985 TAP_TAPCELL_ROW_28_65
*986 TAP_TAPCELL_ROW_28_66
*987 TAP_TAPCELL_ROW_28_67
*988 TAP_TAPCELL_ROW_28_68
*989 TAP_TAPCELL_ROW_28_69
*990 TAP_TAPCELL_ROW_29_70
*991 TAP_TAPCELL_ROW_29_71
*992 TAP_TAPCELL_ROW_29_72
*993 TAP_TAPCELL_ROW_29_73
*994 TAP_TAPCELL_ROW_29_74
*995 TAP_TAPCELL_ROW_29_75
*996 TAP_TAPCELL_ROW_30_76
*997 TAP_TAPCELL_ROW_30_77
*998 TAP_TAPCELL_ROW_30_78
*999 TAP_TAPCELL_ROW_30_79
*1000 TAP_TAPCELL_ROW_30_80
*1001 TAP_TAPCELL_ROW_30_81
*1002 TAP_TAPCELL_ROW_31_82
*1003 TAP_TAPCELL_ROW_31_83
*1004 TAP_TAPCELL_ROW_31_84
*1005 TAP_TAPCELL_ROW_31_85
*1006 TAP_TAPCELL_ROW_31_86
*1007 TAP_TAPCELL_ROW_31_87
*1008 TAP_TAPCELL_ROW_32_88
*1009 TAP_TAPCELL_ROW_32_89
*1010 TAP_TAPCELL_ROW_32_90
*1011 TAP_TAPCELL_ROW_32_91
*1012 TAP_TAPCELL_ROW_32_92
*1013 TAP_TAPCELL_ROW_32_93
*1014 TAP_TAPCELL_ROW_33_94
*1015 TAP_TAPCELL_ROW_33_95
*1016 TAP_TAPCELL_ROW_33_96
*1017 TAP_TAPCELL_ROW_33_97
*1018 TAP_TAPCELL_ROW_33_98
*1019 TAP_TAPCELL_ROW_33_99
*1020 TAP_TAPCELL_ROW_34_100
*1021 TAP_TAPCELL_ROW_34_101
*1022 TAP_TAPCELL_ROW_34_102
*1023 TAP_TAPCELL_ROW_34_103
*1024 TAP_TAPCELL_ROW_34_104
*1025 TAP_TAPCELL_ROW_34_105
*1026 TAP_TAPCELL_ROW_35_106
*1027 TAP_TAPCELL_ROW_35_107
*1028 TAP_TAPCELL_ROW_35_108
*1029 TAP_TAPCELL_ROW_35_109
*1030 TAP_TAPCELL_ROW_35_110
*1031 TAP_TAPCELL_ROW_35_111
*1032 TAP_TAPCELL_ROW_36_112
*1033 TAP_TAPCELL_ROW_36_113
*1034 TAP_TAPCELL_ROW_36_114
*1035 TAP_TAPCELL_ROW_36_115
*1036 TAP_TAPCELL_ROW_36_116
*1037 TAP_TAPCELL_ROW_36_117
*1038 TAP_TAPCELL_ROW_37_118
*1039 TAP_TAPCELL_ROW_37_119
*1040 TAP_TAPCELL_ROW_37_120
*1041 TAP_TAPCELL_ROW_37_121
*1042 TAP_TAPCELL_ROW_37_122
*1043 TAP_TAPCELL_ROW_37_123
*1044 TAP_TAPCELL_ROW_38_124
*1045 TAP_TAPCELL_ROW_38_125
*1046 TAP_TAPCELL_ROW_38_126
*1047 TAP_TAPCELL_ROW_38_127
*1048 TAP_TAPCELL_ROW_38_128
*1049 TAP_TAPCELL_ROW_38_129
*1050 TAP_TAPCELL_ROW_39_130
*1051 TAP_TAPCELL_ROW_39_131
*1052 TAP_TAPCELL_ROW_39_132
*1053 TAP_TAPCELL_ROW_39_133
*1054 TAP_TAPCELL_ROW_39_134
*1055 TAP_TAPCELL_ROW_39_135
*1056 TAP_TAPCELL_ROW_39_136
*1057 TAP_TAPCELL_ROW_39_137
*1058 TAP_TAPCELL_ROW_39_138
*1059 TAP_TAPCELL_ROW_39_139
*1060 TAP_TAPCELL_ROW_39_140
*1061 TAP_TAPCELL_ROW_39_141
*1062 _375_
*1063 _376_
*1064 _377_
*1065 _378_
*1066 _379_
*1067 _380_
*1068 _381_
*1069 _382_
*1070 _383_
*1071 _384_
*1072 _385_
*1073 _386_
*1074 _387_
*1075 _388_
*1076 _389_
*1077 _390_
*1078 _391_
*1079 _392_
*1080 _393_
*1081 _394_
*1082 _395_
*1083 _396_
*1084 _397_
*1085 _398_
*1086 _399_
*1087 _400_
*1088 _401_
*1089 _402_
*1090 _403_
*1091 _404_
*1092 _405_
*1093 _406_
*1094 _407_
*1095 _408_
*1096 _409_
*1097 _410_
*1098 _411_
*1099 _412_
*1100 _413_
*1101 _414_
*1102 _415_
*1103 _416_
*1104 _417_
*1105 _418_
*1106 _419_
*1107 _420_
*1108 _421_
*1109 _422_
*1110 _423_
*1111 _424_
*1112 _425_
*1113 _426_
*1114 _427_
*1115 _428_
*1116 _429_
*1117 _430_
*1118 _431_
*1119 _432_
*1120 _433_
*1121 _434_
*1122 _435_
*1123 _436_
*1124 _437_
*1125 _438_
*1126 _439_
*1127 _440_
*1128 _441_
*1129 _442_
*1130 _443_
*1131 _444_
*1132 _445_
*1133 _446_
*1134 _447_
*1135 _448_
*1136 _449_
*1137 _450_
*1138 _451_
*1139 _452_
*1140 _453_
*1141 _454_
*1142 _455_
*1143 _456_
*1144 _457_
*1145 _458_
*1146 _459_
*1147 _460_
*1148 _461_
*1149 _462_
*1150 _463_
*1151 _464_
*1152 _465_
*1153 _466_
*1154 _467_
*1155 _468_
*1156 _469_
*1157 _470_
*1158 _471_
*1159 _472_
*1160 _473_
*1161 _474_
*1162 _475_
*1163 _476_
*1164 _477_
*1165 _478_
*1166 _479_
*1167 _480_
*1168 _481_
*1169 _482_
*1170 _483_
*1171 _484_
*1172 _485_
*1173 _486_
*1174 _487_
*1175 _488_
*1176 _489_
*1177 _490_
*1178 _491_
*1179 _492_
*1180 _493_
*1181 _494_
*1182 _495_
*1183 _496_
*1184 _497_
*1185 _498_
*1186 _499_
*1187 _500_
*1188 _501_
*1189 _502_
*1190 _503_
*1191 _504_
*1192 _505_
*1193 _506_
*1194 _507_
*1195 _508_
*1196 _509_
*1197 _510_
*1198 _511_
*1199 _512_
*1200 _513_
*1201 _514_
*1202 _515_
*1203 _516_
*1204 _517_
*1205 _518_
*1206 _519_
*1207 _520_
*1208 _521_
*1209 _522_
*1210 _523_
*1211 _524_
*1212 _525_
*1213 _526_
*1214 _527_
*1215 _528_
*1216 _529_
*1217 _530_
*1218 _531_
*1219 _532_
*1220 _533_
*1221 _534_
*1222 _535_
*1223 _536_
*1224 _537_
*1225 _538_
*1226 _539_
*1227 _540_
*1228 _541_
*1229 _542_
*1230 _543_
*1231 _544_
*1232 _545_
*1233 _546_
*1234 _547_
*1235 _548_
*1236 _549_
*1237 _550_
*1238 _551_
*1239 _552_
*1240 _553_
*1241 _554_
*1242 _555_
*1243 _556_
*1244 _557_
*1245 _558_
*1246 _559_
*1247 _560_
*1248 _561_
*1249 _562_
*1250 _563_
*1251 _564_
*1252 _565_
*1253 _566_
*1254 _567_
*1255 _568_
*1256 _569_
*1257 _570_
*1258 _571_
*1259 _572_
*1260 _573_
*1261 _574_
*1262 _575_
*1263 _576_
*1264 _577_
*1265 _578_
*1266 _579_
*1267 _580_
*1268 _581_
*1269 _582_
*1270 _583_
*1271 _584_
*1272 _585_
*1273 _586_
*1274 _587_
*1275 _588_
*1276 _589_
*1277 _590_
*1278 _591_
*1279 _592_
*1280 _593_
*1281 _594_
*1282 _595_
*1283 _596_
*1284 _597_
*1285 _598_
*1286 _599_
*1287 _600_
*1288 _601_
*1289 _602_
*1290 _603_
*1291 _604_
*1292 _605_
*1293 _606_
*1294 _607_
*1295 _608_
*1296 _609_
*1297 _610_
*1298 _611_
*1299 _612_
*1300 _613_
*1301 _614_
*1302 _615_
*1303 _616_
*1304 _617_
*1305 _618_
*1306 _619_
*1307 _620_
*1308 _621_
*1309 _622_
*1310 _623_
*1311 _624_
*1312 _625_
*1313 _626_
*1314 _627_
*1315 _628_
*1316 _629_
*1317 _630_
*1318 _631_
*1319 _632_
*1320 _633_
*1321 _634_
*1322 _635_
*1323 _636_
*1324 _637_
*1325 _638_
*1326 _639_
*1327 _640_
*1328 _641_
*1329 _642_
*1330 _643_
*1331 _644_
*1332 _645_
*1333 _646_
*1334 _647_
*1335 _648_
*1336 _649_
*1337 _650_
*1338 _651_
*1339 _652_
*1340 _653_
*1341 _654_
*1342 _655_
*1343 _656_
*1344 _657_
*1345 _658_
*1346 _659_
*1347 _660_
*1348 _661_
*1349 _662_
*1350 _663_
*1351 _664_
*1352 _665_
*1353 _666_
*1354 _667_
*1355 _668_
*1356 _669_
*1357 _670_
*1358 _671_
*1359 _672_
*1360 _673_
*1361 _674_
*1362 _675_
*1363 _676_
*1364 _677_
*1365 _678_
*1366 _679_
*1367 _680_
*1368 _681_
*1369 _682_
*1370 _683_
*1371 _684_
*1372 _685_
*1373 _686_
*1374 _687_
*1375 _688_
*1376 _689_
*1377 _690_
*1378 _691_
*1379 _692_
*1380 _693_
*1381 _694_
*1382 _695_
*1383 _696_
*1384 _697_
*1385 _698_
*1386 _699_
*1387 _700_
*1388 _701_
*1389 _702_
*1390 _703_
*1391 _704_
*1392 _705_
*1393 _706_
*1394 _707_
*1395 _708_
*1396 _709_
*1397 _710_
*1398 _711_
*1399 _712_
*1400 _713_
*1401 _714_
*1402 _715_
*1403 _716_
*1404 _717_
*1405 _718_
*1406 _719_
*1407 _720_
*1408 _721_
*1409 _722_
*1410 _723_
*1411 _724_
*1412 _725_
*1413 _726_
*1414 _727_
*1415 _728_
*1416 _729_
*1417 _730_
*1418 _731_
*1419 _732_
*1420 _733_
*1421 _734_
*1422 _735_
*1423 _736_
*1424 _737_
*1425 _738_
*1426 _739_
*1427 _740_
*1428 _741_
*1429 _742_
*1430 _743_
*1431 _744_
*1432 _745_
*1433 _746_
*1434 _747_
*1435 _748_
*1436 _749_
*1437 _750_
*1438 _751_
*1439 _752_
*1440 _753_
*1441 _754_
*1442 _755_
*1443 _756_
*1444 _757_
*1445 _758_
*1446 _759_
*1447 _760_
*1448 _761_
*1449 _762_
*1450 _763_
*1451 _764_
*1452 _765_
*1453 _766_
*1454 _767_
*1455 _768_
*1456 _769_
*1457 _770_
*1458 _771_
*1459 _772_
*1460 _773_
*1461 _774_
*1462 _775_
*1463 _776_
*1464 _777_
*1465 _778_
*1466 _779_
*1467 _780_
*1468 _781_
*1469 _782_
*1470 _783_
*1471 _784_
*1472 _785_
*1473 _786_
*1474 _787_
*1475 _788_
*1476 _789_
*1477 _790_
*1478 _791_
*1479 _792_
*1480 _793_
*1481 _794_
*1482 _795_
*1483 _796_
*1484 _797_
*1485 _798_
*1486 _799_
*1487 _800_
*1488 _801_
*1489 _802_
*1490 _803_
*1491 _804_
*1492 _805_
*1493 _806_
*1494 _807_
*1495 _808_
*1496 _809_
*1497 _810_
*1498 _811_
*1499 _812_
*1500 _813_
*1501 _814_
*1502 _815_
*1503 _816_
*1504 _817_
*1505 _818_
*1506 _819_
*1507 _820_
*1508 _821_
*1509 _822_
*1510 _823_
*1511 _824_
*1512 _825_
*1513 _826_
*1514 _827_
*1515 _828_
*1516 _829_
*1517 _830_
*1518 _831_
*1519 _832_
*1520 _833_
*1521 _834_
*1522 _851_
*1523 _852_
*1524 _853_
*1525 fanout10
*1526 fanout11
*1527 fanout12
*1528 fanout13
*1529 fanout14
*1530 fanout15
*1531 fanout16
*1532 fanout17
*1533 fanout18
*1534 fanout22
*1535 fanout23
*1536 fanout24
*1537 fanout25
*1538 fanout27
*1539 fanout28
*1540 fanout30
*1541 fanout6
*1542 fanout7
*1543 fanout8
*1544 fanout9
*1545 hold46
*1546 hold47
*1547 hold48
*1548 hold49
*1549 hold50
*1550 hold51
*1551 hold52
*1552 hold53
*1553 hold54
*1554 hold55
*1555 hold56
*1556 hold57
*1557 hold58
*1558 hold59
*1559 hold60
*1560 hold61
*1561 hold62
*1562 hold63
*1563 hold64
*1564 hold65
*1565 hold66
*1566 hold67
*1567 hold68
*1568 hold69
*1569 hold70
*1570 hold71
*1571 hold72
*1572 i_clk_buf
*1573 i_lfsrbuf\[0\]
*1574 i_lfsrbuf\[10\]
*1575 i_lfsrbuf\[11\]
*1576 i_lfsrbuf\[12\]
*1577 i_lfsrbuf\[13\]
*1578 i_lfsrbuf\[14\]
*1579 i_lfsrbuf\[1\]
*1580 i_lfsrbuf\[2\]
*1581 i_lfsrbuf\[3\]
*1582 i_lfsrbuf\[4\]
*1583 i_lfsrbuf\[5\]
*1584 i_lfsrbuf\[6\]
*1585 i_lfsrbuf\[7\]
*1586 i_lfsrbuf\[8\]
*1587 i_lfsrbuf\[9\]
*1588 input1
*1589 input2
*1590 input3
*1591 input4
*1592 input5
*1593 load_slew26
*1594 load_slew29
*1595 max_cap19
*1596 max_cap20
*1597 max_cap21
*1598 sprite
*1599 timing\.counter
*1600 timing\.counter_44
*1601 timing\.i_and
*1602 timing\.i_nand
*1603 tt_um_rebelmike_asic_odyssey
*1604 tt_um_rebelmike_asic_odyssey_31
*1605 tt_um_rebelmike_asic_odyssey_32
*1606 tt_um_rebelmike_asic_odyssey_33
*1607 tt_um_rebelmike_asic_odyssey_34
*1608 tt_um_rebelmike_asic_odyssey_35
*1609 tt_um_rebelmike_asic_odyssey_36
*1610 tt_um_rebelmike_asic_odyssey_37
*1611 tt_um_rebelmike_asic_odyssey_38
*1612 tt_um_rebelmike_asic_odyssey_39
*1613 tt_um_rebelmike_asic_odyssey_40
*1614 tt_um_rebelmike_asic_odyssey_41
*1615 tt_um_rebelmike_asic_odyssey_42
*1616 tt_um_rebelmike_asic_odyssey_43
*1617 tt_um_rebelmike_asic_odyssey_45

*PORTS
clk I
ena I
rst_n I
ui_in[0] I
ui_in[1] I
ui_in[2] I
ui_in[3] I
ui_in[4] I
ui_in[5] I
ui_in[6] I
ui_in[7] I
uio_in[0] I
uio_in[1] I
uio_in[2] I
uio_in[3] I
uio_in[4] I
uio_in[5] I
uio_in[6] I
uio_in[7] I
uio_oe[0] O
uio_oe[1] O
uio_oe[2] O
uio_oe[3] O
uio_oe[4] O
uio_oe[5] O
uio_oe[6] O
uio_oe[7] O
uio_out[0] O
uio_out[1] O
uio_out[2] O
uio_out[3] O
uio_out[4] O
uio_out[5] O
uio_out[6] O
uio_out[7] O
uo_out[0] O
uo_out[1] O
uo_out[2] O
uo_out[3] O
uo_out[4] O
uo_out[5] O
uo_out[6] O
uo_out[7] O

*D_NET *3 0.000499037
*CONN
*P clk I
*I *1572:A I *D sky130_fd_sc_hd__clkbuf_16
*CAP
1 clk 0.000172675
2 *1572:A 0.000172675
3 *1572:A *1588:A 6.16668e-05
4 *1572:A *587:98 9.20202e-05
*RES
1 clk *1572:A 22.2086 
*END

*D_NET *5 0.00120243
*CONN
*P rst_n I
*I *1588:A I *D sky130_fd_sc_hd__clkdlybuf4s25_1
*CAP
1 rst_n 0.000464527
2 *1588:A 0.000464527
3 *1588:A *1589:A 1.28585e-05
4 *1588:A *1598:addr[2] 0
5 *1588:A *480:12 0.00015304
6 *1588:A *534:22 4.58096e-05
7 *1588:A *587:98 0
8 *1572:A *1588:A 6.16668e-05
*RES
1 rst_n *1588:A 24.4593 
*END

*D_NET *10 0.00190803
*CONN
*P ui_in[4] I
*I *1589:A I *D sky130_fd_sc_hd__clkdlybuf4s25_1
*CAP
1 ui_in[4] 0.000937151
2 *1589:A 0.000937151
3 *1589:A *1590:A 2.08644e-05
4 *1589:A *587:98 0
5 *1588:A *1589:A 1.28585e-05
*RES
1 ui_in[4] *1589:A 25.243 
*END

*D_NET *11 0.0036238
*CONN
*P ui_in[5] I
*I *1590:A I *D sky130_fd_sc_hd__clkdlybuf4s25_1
*CAP
1 ui_in[5] 0.00129075
2 *1590:A 0.00129075
3 *1590:A *1351:B1 6.85372e-05
4 *1590:A *1417:A2 0
5 *1590:A *1417:B1 0.000186101
6 *1590:A *1514:D 0.000204073
7 *1590:A *1575:A 0.000129279
8 *1590:A *1578:A 0.000164545
9 *1590:A *1591:A 0.000175409
10 *1590:A *103:30 9.34896e-05
11 *1590:A *482:10 0
12 *1589:A *1590:A 2.08644e-05
*RES
1 ui_in[5] *1590:A 30.7515 
*END

*D_NET *12 0.0016831
*CONN
*P ui_in[6] I
*I *1591:A I *D sky130_fd_sc_hd__clkdlybuf4s25_1
*CAP
1 ui_in[6] 0.000642208
2 *1591:A 0.000642208
3 *1591:A *1144:A 0
4 *1591:A *1347:B 0.000137113
5 *1591:A *1351:C1 0
6 *1591:A *1519:CLK 0
7 *1591:A *1575:A 2.74485e-05
8 *1591:A *1592:A 5.87118e-05
9 *1590:A *1591:A 0.000175409
*RES
1 ui_in[6] *1591:A 25.5959 
*END

*D_NET *13 0.00134797
*CONN
*P ui_in[7] I
*I *1592:A I *D sky130_fd_sc_hd__clkdlybuf4s25_1
*CAP
1 ui_in[7] 0.000638665
2 *1592:A 0.000638665
3 *1592:A *1144:A 1.19309e-05
4 *1592:A *1347:B 0
5 *1592:A *587:90 0
6 *1591:A *1592:A 5.87118e-05
*RES
1 ui_in[7] *1592:A 23.2328 
*END

*D_NET *22 0.00138204
*CONN
*P uio_oe[0] O
*I *1603:LO O *D sky130_fd_sc_hd__conb_1
*CAP
1 uio_oe[0] 0.000588268
2 *1603:LO 0.000588268
3 uio_oe[0] uio_oe[1] 1.63602e-05
4 uio_oe[0] uio_out[7] 0.000189147
5 uio_oe[0] *1245:B 0
6 uio_oe[0] *1246:A1 0
7 uio_oe[0] *419:187 0
8 uio_oe[0] *419:200 0
9 uio_oe[0] *579:40 0
*RES
1 *1603:LO uio_oe[0] 28.5867 
*END

*D_NET *23 0.00163702
*CONN
*P uio_oe[1] O
*I *1604:LO O *D sky130_fd_sc_hd__conb_1
*CAP
1 uio_oe[1] 0.000658673
2 *1604:LO 0.000658673
3 uio_oe[1] uio_oe[2] 1.63602e-05
4 uio_oe[1] *1252:A 8.39e-05
5 uio_oe[1] *1252:B 0.00015234
6 uio_oe[1] *535:73 5.07157e-05
7 uio_oe[1] *579:40 0
8 uio_oe[0] uio_oe[1] 1.63602e-05
*RES
1 *1604:LO uio_oe[1] 26.1996 
*END

*D_NET *24 0.00173696
*CONN
*P uio_oe[2] O
*I *1605:LO O *D sky130_fd_sc_hd__conb_1
*CAP
1 uio_oe[2] 0.000530424
2 *1605:LO 0.000530424
3 uio_oe[2] uio_oe[3] 0.000209156
4 uio_oe[2] uio_out[7] 0
5 uio_oe[2] *1259:A 0.000128154
6 uio_oe[2] *1259:B 0.000151613
7 uio_oe[2] *1436:A1 6.6833e-05
8 uio_oe[2] *531:16 6.45145e-05
9 uio_oe[2] *577:30 0
10 uio_oe[2] *579:40 3.94839e-05
11 uio_oe[1] uio_oe[2] 1.63602e-05
*RES
1 *1605:LO uio_oe[2] 25.2579 
*END

*D_NET *25 0.0025418
*CONN
*P uio_oe[3] O
*I *1606:LO O *D sky130_fd_sc_hd__conb_1
*CAP
1 uio_oe[3] 0.000719652
2 *1606:LO 0.000719652
3 uio_oe[3] uio_oe[4] 0.000215411
4 uio_oe[3] *1243:B 0
5 uio_oe[3] *1250:A 9.88136e-05
6 uio_oe[3] *1250:B 0
7 uio_oe[3] *1253:A1 0.000111348
8 uio_oe[3] *1253:A2 1.59689e-05
9 uio_oe[3] *1289:A2 0.000211942
10 uio_oe[3] *1289:B1 0.000188206
11 uio_oe[3] *1290:A3 9.25014e-06
12 uio_oe[3] *1436:A1 0
13 uio_oe[3] *577:30 0
14 uio_oe[3] *579:40 4.23968e-05
15 uio_oe[2] uio_oe[3] 0.000209156
*RES
1 *1606:LO uio_oe[3] 28.5972 
*END

*D_NET *26 0.00157266
*CONN
*P uio_oe[4] O
*I *1607:LO O *D sky130_fd_sc_hd__conb_1
*CAP
1 uio_oe[4] 0.000421414
2 *1607:LO 0.000421414
3 uio_oe[4] uio_oe[5] 0.000215407
4 uio_oe[4] *1243:B 0.000254745
5 uio_oe[4] *1254:A1 0
6 uio_oe[4] *261:8 0
7 uio_oe[4] *577:30 0
8 uio_oe[4] *579:40 4.42675e-05
9 uio_oe[3] uio_oe[4] 0.000215411
*RES
1 *1607:LO uio_oe[4] 25.2579 
*END

*D_NET *27 0.00379164
*CONN
*P uio_oe[5] O
*I *1608:LO O *D sky130_fd_sc_hd__conb_1
*CAP
1 uio_oe[5] 0.000887285
2 *1608:LO 0.000887285
3 uio_oe[5] uio_oe[6] 0.000194222
4 uio_oe[5] *1128:B 8.28647e-05
5 uio_oe[5] *1243:B 0
6 uio_oe[5] *1251:B 0.000174812
7 uio_oe[5] *1255:B 7.54343e-05
8 uio_oe[5] *1437:B1 3.40312e-05
9 uio_oe[5] *1438:A2 0.000127336
10 uio_oe[5] *1438:B2 2.84269e-05
11 uio_oe[5] *1439:A1 0.000258689
12 uio_oe[5] *1439:A2 4.96905e-05
13 uio_oe[5] *1482:D 0.000167019
14 uio_oe[5] *1593:A 8.81622e-05
15 uio_oe[5] *131:14 0.000201646
16 uio_oe[5] *469:8 0.000170099
17 uio_oe[5] *469:14 0.000106844
18 uio_oe[5] *476:10 0
19 uio_oe[5] *579:40 4.239e-05
20 uio_oe[4] uio_oe[5] 0.000215407
*RES
1 *1608:LO uio_oe[5] 37.2758 
*END

*D_NET *28 0.00397406
*CONN
*P uio_oe[6] O
*I *1609:LO O *D sky130_fd_sc_hd__conb_1
*CAP
1 uio_oe[6] 0.00084308
2 *1609:LO 0.00084308
3 uio_oe[6] uio_oe[7] 0.00086839
4 uio_oe[6] *1082:B 0.000267637
5 uio_oe[6] *1255:A 0
6 uio_oe[6] *1433:A1_N 0
7 uio_oe[6] *1522:A 1.09232e-05
8 uio_oe[6] *1555:A 2.59093e-05
9 uio_oe[6] *126:12 7.77652e-05
10 uio_oe[6] *419:35 2.09044e-05
11 uio_oe[6] *419:41 3.15814e-05
12 uio_oe[6] *419:50 2.5621e-05
13 uio_oe[6] *579:40 0.000501644
14 uio_oe[6] *587:31 4.38265e-05
15 uio_oe[6] *590:83 0.000219478
16 uio_oe[5] uio_oe[6] 0.000194222
*RES
1 *1609:LO uio_oe[6] 33.3535 
*END

*D_NET *29 0.00303
*CONN
*P uio_oe[7] O
*I *1617:HI O *D sky130_fd_sc_hd__conb_1
*CAP
1 uio_oe[7] 0.000802284
2 *1617:HI 0.000802284
3 uio_oe[7] *126:12 3.67142e-05
4 uio_oe[7] *419:35 3.32971e-05
5 uio_oe[7] *419:41 0.000325166
6 uio_oe[7] *419:50 0.000139379
7 uio_oe[7] *579:40 2.24813e-05
8 uio_oe[6] uio_oe[7] 0.00086839
*RES
1 *1617:HI uio_oe[7] 30.1533 
*END

*D_NET *30 0.00120233
*CONN
*P uio_out[0] O
*I *1610:LO O *D sky130_fd_sc_hd__conb_1
*CAP
1 uio_out[0] 0.000321365
2 *1610:LO 0.000321365
3 uio_out[0] uio_out[1] 0.00013625
4 uio_out[0] uo_out[7] 0.00035446
5 uio_out[0] *1524:A 5.33005e-05
6 uio_out[0] *419:217 1.55885e-05
*RES
1 *1610:LO uio_out[0] 23.6219 
*END

*D_NET *31 0.000898075
*CONN
*P uio_out[1] O
*I *1611:LO O *D sky130_fd_sc_hd__conb_1
*CAP
1 uio_out[1] 0.00029596
2 *1611:LO 0.00029596
3 uio_out[1] uio_out[2] 0.000122441
4 uio_out[1] uo_out[6] 0
5 uio_out[1] uo_out[7] 7.69776e-06
6 uio_out[1] *419:217 3.97657e-05
7 uio_out[0] uio_out[1] 0.00013625
*RES
1 *1611:LO uio_out[1] 23.3853 
*END

*D_NET *32 0.000803832
*CONN
*P uio_out[2] O
*I *1612:LO O *D sky130_fd_sc_hd__conb_1
*CAP
1 uio_out[2] 0.000321927
2 *1612:LO 0.000321927
3 uio_out[2] uio_out[3] 3.7536e-05
4 uio_out[2] uio_out[4] 0
5 uio_out[2] *471:10 0
6 uio_out[2] *577:30 0
7 uio_out[1] uio_out[2] 0.000122441
*RES
1 *1612:LO uio_out[2] 21.9747 
*END

*D_NET *33 0.00191929
*CONN
*P uio_out[3] O
*I *1613:LO O *D sky130_fd_sc_hd__conb_1
*CAP
1 uio_out[3] 0.000715017
2 *1613:LO 0.000715017
3 uio_out[3] uio_out[4] 4.15682e-05
4 uio_out[3] *1266:A3 3.06878e-06
5 uio_out[3] *1267:B 0.000142053
6 uio_out[3] *1477:D 0.000186669
7 uio_out[3] *471:10 7.83659e-05
8 uio_out[2] uio_out[3] 3.7536e-05
*RES
1 *1613:LO uio_out[3] 30.2985 
*END

*D_NET *34 0.00192225
*CONN
*P uio_out[4] O
*I *1614:LO O *D sky130_fd_sc_hd__conb_1
*CAP
1 uio_out[4] 0.000516802
2 *1614:LO 0.000516802
3 uio_out[4] uio_out[5] 0.000491026
4 uio_out[4] uio_out[6] 2.28188e-05
5 uio_out[4] *1245:A 4.19624e-06
6 uio_out[4] *1245:B 2.04825e-05
7 uio_out[4] *579:40 0.000308557
8 uio_out[2] uio_out[4] 0
9 uio_out[3] uio_out[4] 4.15682e-05
*RES
1 *1614:LO uio_out[4] 23.5352 
*END

*D_NET *35 0.00174288
*CONN
*P uio_out[5] O
*I *1615:LO O *D sky130_fd_sc_hd__conb_1
*CAP
1 uio_out[5] 0.000411505
2 *1615:LO 0.000411505
3 uio_out[5] uio_out[6] 0.000249218
4 uio_out[5] *1245:A 1.28443e-05
5 uio_out[5] *1245:B 9.87983e-06
6 uio_out[5] *256:10 0.000156903
7 uio_out[4] uio_out[5] 0.000491026
*RES
1 *1615:LO uio_out[5] 24.9778 
*END

*D_NET *36 0.00138272
*CONN
*P uio_out[6] O
*I *1616:LO O *D sky130_fd_sc_hd__conb_1
*CAP
1 uio_out[6] 0.000375597
2 *1616:LO 0.000375597
3 uio_out[6] uio_out[7] 3.7536e-05
4 uio_out[6] *1245:B 1.36181e-05
5 uio_out[6] *256:10 0.000271345
6 uio_out[6] *579:40 3.6994e-05
7 uio_out[4] uio_out[6] 2.28188e-05
8 uio_out[5] uio_out[6] 0.000249218
*RES
1 *1616:LO uio_out[6] 24.62 
*END

*D_NET *37 0.00502238
*CONN
*P uio_out[7] O
*I *1522:X O *D sky130_fd_sc_hd__buf_2
*CAP
1 uio_out[7] 0.00196682
2 *1522:X 0.00196682
3 uio_out[7] *1246:B1 0.000242659
4 uio_out[7] *1247:C 1.02821e-05
5 uio_out[7] *1252:A 2.84026e-05
6 uio_out[7] *1254:A2 0.00014667
7 uio_out[7] *1475:D 0.000151917
8 uio_out[7] *1522:A 5.33334e-05
9 uio_out[7] *419:200 0.000228791
10 uio_out[7] *579:40 0
11 uio_oe[0] uio_out[7] 0.000189147
12 uio_oe[2] uio_out[7] 0
13 uio_out[6] uio_out[7] 3.7536e-05
*RES
1 *1522:X uio_out[7] 44.5867 
*END

*D_NET *38 0.00122938
*CONN
*P uo_out[0] O
*I *1499:Q O *D sky130_fd_sc_hd__dfxtp_2
*CAP
1 uo_out[0] 0.000503187
2 *1499:Q 0.000503187
3 uo_out[0] uo_out[1] 1.63602e-05
4 uo_out[0] uo_out[3] 0
5 uo_out[0] *221:10 0.00010339
6 uo_out[0] *453:16 0.000103254
*RES
1 *1499:Q uo_out[0] 22.1251 
*END

*D_NET *39 0.00114376
*CONN
*P uo_out[1] O
*I *1497:Q O *D sky130_fd_sc_hd__dfxtp_2
*CAP
1 uo_out[1] 0.000384825
2 *1497:Q 0.000384825
3 uo_out[1] uo_out[2] 0.000311243
4 uo_out[1] *1199:B 1.83136e-05
5 uo_out[1] *1492:D 2.81946e-05
6 uo_out[0] uo_out[1] 1.63602e-05
*RES
1 *1497:Q uo_out[1] 26.0146 
*END

*D_NET *40 0.00167667
*CONN
*P uo_out[2] O
*I *1495:Q O *D sky130_fd_sc_hd__dfxtp_2
*CAP
1 uo_out[2] 0.000540468
2 *1495:Q 0.000540468
3 uo_out[2] uo_out[3] 2.08644e-05
4 uo_out[2] *1199:B 0.000121254
5 uo_out[2] *80:56 5.49489e-05
6 uo_out[2] *453:16 4.42631e-05
7 uo_out[2] *453:26 4.31572e-05
8 uo_out[1] uo_out[2] 0.000311243
*RES
1 *1495:Q uo_out[2] 27.9896 
*END

*D_NET *41 0.00206887
*CONN
*P uo_out[3] O
*I *1523:X O *D sky130_fd_sc_hd__buf_2
*CAP
1 uo_out[3] 0.00080419
2 *1523:X 0.00080419
3 uo_out[3] uo_out[4] 7.77396e-05
4 uo_out[3] uo_out[6] 0
5 uo_out[3] *1199:A 3.30237e-05
6 uo_out[3] *1199:B 5.33005e-05
7 uo_out[3] *1498:D 0.000208001
8 uo_out[3] *426:28 4.87536e-05
9 uo_out[3] *426:41 1.88048e-05
10 uo_out[3] *533:85 0
11 uo_out[0] uo_out[3] 0
12 uo_out[2] uo_out[3] 2.08644e-05
*RES
1 *1523:X uo_out[3] 27.4938 
*END

*D_NET *42 0.000812523
*CONN
*P uo_out[4] O
*I *1498:Q O *D sky130_fd_sc_hd__dfxtp_2
*CAP
1 uo_out[4] 0.000328522
2 *1498:Q 0.000328522
3 uo_out[4] uo_out[5] 7.77396e-05
4 uo_out[3] uo_out[4] 7.77396e-05
*RES
1 *1498:Q uo_out[4] 21.8368 
*END

*D_NET *43 0.000765524
*CONN
*P uo_out[5] O
*I *1496:Q O *D sky130_fd_sc_hd__dfxtp_2
*CAP
1 uo_out[5] 0.000303309
2 *1496:Q 0.000303309
3 uo_out[5] uo_out[6] 8.11667e-05
4 uo_out[4] uo_out[5] 7.77396e-05
*RES
1 *1496:Q uo_out[5] 21.7647 
*END

*D_NET *44 0.00109692
*CONN
*P uo_out[6] O
*I *1494:Q O *D sky130_fd_sc_hd__dfxtp_2
*CAP
1 uo_out[6] 0.000432291
2 *1494:Q 0.000432291
3 uo_out[6] uo_out[7] 9.67611e-05
4 uo_out[6] *1478:D 2.28904e-05
5 uo_out[6] *81:18 3.15196e-05
6 uo_out[6] *194:68 0
7 uio_out[1] uo_out[6] 0
8 uo_out[3] uo_out[6] 0
9 uo_out[5] uo_out[6] 8.11667e-05
*RES
1 *1494:Q uo_out[6] 22.7573 
*END

*D_NET *45 0.00146416
*CONN
*P uo_out[7] O
*I *1524:X O *D sky130_fd_sc_hd__buf_2
*CAP
1 uo_out[7] 0.000418999
2 *1524:X 0.000418999
3 uo_out[7] *419:217 0.000109996
4 uo_out[7] *457:42 5.7248e-05
5 uio_out[0] uo_out[7] 0.00035446
6 uio_out[1] uo_out[7] 7.69776e-06
7 uo_out[6] uo_out[7] 9.67611e-05
*RES
1 *1524:X uo_out[7] 22.8387 
*END

*D_NET *46 0.000838136
*CONN
*I *602:GATE I *D sky130_fd_sc_hd__dlclkp_2
*I *1173:Y O *D sky130_fd_sc_hd__nor3_2
*CAP
1 *602:GATE 0.000140974
2 *1173:Y 0.000140974
3 *602:GATE *1130:A_N 7.84126e-05
4 *602:GATE *1229:B 0.000156704
5 *602:GATE *1230:B 0.000166955
6 *602:GATE *179:29 5.52238e-05
7 *602:GATE *427:10 8.86413e-05
8 *602:GATE *430:54 1.02504e-05
*RES
1 *1173:Y *602:GATE 32.0286 
*END

*D_NET *47 0.00049864
*CONN
*I *1445:GATE I *D sky130_fd_sc_hd__dlclkp_2
*I *1139:X O *D sky130_fd_sc_hd__and2b_2
*CAP
1 *1445:GATE 0.000176518
2 *1139:X 0.000176518
3 *1445:GATE *1179:A 0
4 *1445:GATE *1196:B2 0.000145603
*RES
1 *1139:X *1445:GATE 30.4036 
*END

*D_NET *48 0.000661875
*CONN
*I *1483:D I *D sky130_fd_sc_hd__dfstp_2
*I *1183:Y O *D sky130_fd_sc_hd__nand2_2
*CAP
1 *1483:D 0.000258027
2 *1183:Y 0.000258027
3 *1483:D *1183:B 0.000102545
4 *1483:D *1595:A 0
5 *1483:D *1598:addr[11] 4.32751e-05
*RES
1 *1183:Y *1483:D 31.6714 
*END

*D_NET *49 0.000295301
*CONN
*I *1493:D I *D sky130_fd_sc_hd__dfrtp_2
*I *1202:X O *D sky130_fd_sc_hd__and2_2
*CAP
1 *1493:D 8.30234e-05
2 *1202:X 8.30234e-05
3 *1493:D *1182:A 0.000119706
4 *1493:D *1444:CLK 0
5 *1493:D *1499:D 9.54798e-06
*RES
1 *1202:X *1493:D 29.2429 
*END

*D_NET *50 0.000749874
*CONN
*I *1484:D I *D sky130_fd_sc_hd__dfstp_2
*I *1185:Y O *D sky130_fd_sc_hd__o21ai_2
*CAP
1 *1484:D 0.000183533
2 *1185:Y 0.000183533
3 *1484:D *1185:A2 0
4 *1484:D *211:16 0.000230475
5 *1484:D *222:35 0.000152333
*RES
1 *1185:Y *1484:D 31.725 
*END

*D_NET *51 0.00110194
*CONN
*I *1485:D I *D sky130_fd_sc_hd__dfstp_2
*I *1187:Y O *D sky130_fd_sc_hd__o21ai_2
*CAP
1 *1485:D 0.000336476
2 *1187:Y 0.000336476
3 *1485:D *1187:A2 4.53889e-05
4 *1485:D *446:58 0.000104818
5 *1485:D *449:10 0
6 *1485:D *572:73 0.00027878
*RES
1 *1187:Y *1485:D 35.2071 
*END

*D_NET *52 0.000853236
*CONN
*I *1486:D I *D sky130_fd_sc_hd__dfrtp_2
*I *1189:Y O *D sky130_fd_sc_hd__nor2_2
*CAP
1 *1486:D 0.00016261
2 *1189:Y 0.00016261
3 *1486:D *1189:B 0.000318852
4 *1486:D *1341:A 0.000197127
5 *1486:D *157:49 1.20377e-05
6 *1486:D *446:58 0
*RES
1 *1189:Y *1486:D 32.2071 
*END

*D_NET *53 0.000474228
*CONN
*I *1487:D I *D sky130_fd_sc_hd__dfrtp_2
*I *1190:X O *D sky130_fd_sc_hd__xor2_2
*CAP
1 *1487:D 0.000159511
2 *1190:X 0.000159511
3 *1487:D *1315:A2_N 0
4 *1487:D *1483:CLK 1.52978e-05
5 *1487:D *1487:CLK 5.52238e-05
6 *1487:D *418:55 0
7 *1487:D *418:57 8.46829e-05
*RES
1 *1190:X *1487:D 30.6 
*END

*D_NET *54 0.000928988
*CONN
*I *1488:D I *D sky130_fd_sc_hd__dfstp_2
*I *1192:Y O *D sky130_fd_sc_hd__o21ai_2
*CAP
1 *1488:D 0.000273092
2 *1192:Y 0.000273092
3 *1488:D *1192:A1 0.000199307
4 *1488:D *1584:A 3.57844e-05
5 *1488:D *418:51 0
6 *1488:D *533:54 0.000147713
*RES
1 *1192:Y *1488:D 33.0464 
*END

*D_NET *55 0.00162808
*CONN
*I *1489:D I *D sky130_fd_sc_hd__dfrtp_2
*I *1194:Y O *D sky130_fd_sc_hd__nor2_2
*CAP
1 *1489:D 0.000412992
2 *1194:Y 0.000412992
3 *1489:D *1145:B 9.60939e-05
4 *1489:D *1194:A 0.000243597
5 *1489:D *1294:A 9.43546e-06
6 *1489:D *194:35 1.01912e-05
7 *1489:D *194:68 0.000106546
8 *1489:D *418:34 7.77652e-05
9 *1489:D *525:24 0.000258467
10 *1489:D *527:42 0
*RES
1 *1194:Y *1489:D 36.5107 
*END

*D_NET *56 0.000437351
*CONN
*I *1490:D I *D sky130_fd_sc_hd__dfstp_2
*I *1196:X O *D sky130_fd_sc_hd__a22o_2
*CAP
1 *1490:D 9.405e-05
2 *1196:X 9.405e-05
3 *1490:D *1444:CLK 0.000125724
4 *1490:D *1492:CLK 4.46186e-06
5 *1490:D *418:119 6.19181e-05
6 *1490:D *533:85 5.71472e-05
*RES
1 *1196:X *1490:D 29.7786 
*END

*D_NET *57 0.00160001
*CONN
*I *1491:D I *D sky130_fd_sc_hd__dfstp_2
*I *1198:Y O *D sky130_fd_sc_hd__o21ai_2
*CAP
1 *1491:D 0.000274613
2 *1198:Y 0.000274613
3 *1491:D *1149:B 0.000171368
4 *1491:D *1178:B 2.79421e-05
5 *1491:D *1180:B 4.87953e-05
6 *1491:D *1198:B1 3.27359e-05
7 *1491:D *182:10 0.000587935
8 *1491:D *217:27 1.57206e-05
9 *1491:D *418:51 9.69485e-05
10 *1491:D *587:90 6.93379e-05
*RES
1 *1198:Y *1491:D 36.2607 
*END

*D_NET *58 0.00179656
*CONN
*I *1492:D I *D sky130_fd_sc_hd__dfrtp_2
*I *1200:Y O *D sky130_fd_sc_hd__nor2_2
*CAP
1 *1492:D 0.000397357
2 *1200:Y 0.000397357
3 *1492:D *1180:B 0.000166416
4 *1492:D *1199:B 0.000311095
5 *1492:D *218:37 8.86413e-05
6 *1492:D *221:25 4.50779e-05
7 *1492:D *426:22 0.000307724
8 *1492:D *453:26 5.47001e-05
9 uo_out[1] *1492:D 2.81946e-05
*RES
1 *1200:Y *1492:D 37.1893 
*END

*D_NET *59 0.000435378
*CONN
*I *1465:D I *D sky130_fd_sc_hd__dfrtp_2
*I *1062:Y O *D sky130_fd_sc_hd__inv_2
*CAP
1 *1465:D 0.000127805
2 *1062:Y 0.000127805
3 *1465:D *1062:A 9.90367e-05
4 *1465:D *1465:CLK 8.07313e-05
*RES
1 *1062:Y *1465:D 21.1893 
*END

*D_NET *60 0.000356437
*CONN
*I *1466:D I *D sky130_fd_sc_hd__dfrtp_2
*I *1082:X O *D sky130_fd_sc_hd__xor2_2
*CAP
1 *1466:D 3.50847e-05
2 *1082:X 3.50847e-05
3 *1466:D *1082:B 0.000185643
4 *1466:D *419:56 7.17235e-05
5 *1466:D *419:60 2.89016e-05
*RES
1 *1082:X *1466:D 20.3679 
*END

*D_NET *61 0.00120664
*CONN
*I *1467:D I *D sky130_fd_sc_hd__dfrtp_2
*I *1085:Y O *D sky130_fd_sc_hd__nor2_2
*CAP
1 *1467:D 0.000416966
2 *1085:Y 0.000416966
3 *1467:D *1082:B 3.02581e-06
4 *1467:D *419:60 4.58605e-05
5 *1467:D *419:64 3.34672e-05
6 *1467:D *462:47 0.000271345
7 *1467:D *545:18 1.90111e-05
*RES
1 *1085:Y *1467:D 33.5821 
*END

*D_NET *62 0.000918819
*CONN
*I *1468:D I *D sky130_fd_sc_hd__dfrtp_2
*I *1088:Y O *D sky130_fd_sc_hd__nor2_2
*CAP
1 *1468:D 0.000296273
2 *1088:Y 0.000296273
3 *1468:D *1088:B 0.000212643
4 *1468:D *1470:D 5.49489e-05
5 *1468:D *140:8 4.84678e-05
6 *1468:D *462:47 1.02132e-05
*RES
1 *1088:Y *1468:D 33.1893 
*END

*D_NET *63 0.000286123
*CONN
*I *1469:D I *D sky130_fd_sc_hd__dfrtp_2
*I *1089:X O *D sky130_fd_sc_hd__xor2_2
*CAP
1 *1469:D 9.71443e-05
2 *1089:X 9.71443e-05
3 *1469:D *437:45 9.18347e-05
*RES
1 *1089:X *1469:D 20.3679 
*END

*D_NET *64 0.00191342
*CONN
*I *1470:D I *D sky130_fd_sc_hd__dfrtp_2
*I *1092:Y O *D sky130_fd_sc_hd__nor2_2
*CAP
1 *1470:D 0.000410947
2 *1092:Y 0.000410947
3 *1470:D *1092:A 4.30904e-05
4 *1470:D *1092:B 0.000287057
5 *1470:D *144:29 0.000630945
6 *1470:D *419:100 0
7 *1470:D *463:45 7.54868e-05
8 *1468:D *1470:D 5.49489e-05
*RES
1 *1092:Y *1470:D 37.6714 
*END

*D_NET *65 0.0021601
*CONN
*I *1471:D I *D sky130_fd_sc_hd__dfrtp_2
*I *1095:X O *D sky130_fd_sc_hd__and2_2
*CAP
1 *1471:D 0.00074622
2 *1095:X 0.00074622
3 *1471:D *1209:B 0.00013059
4 *1471:D *1240:A1 5.52302e-05
5 *1471:D *1472:RESET_B 5.22029e-05
6 *1471:D *1553:A 0.000255565
7 *1471:D *147:26 0.00014445
8 *1471:D *465:18 9.25014e-06
9 *1471:D *465:48 8.57572e-06
10 *1471:D *530:73 1.17968e-05
*RES
1 *1095:X *1471:D 38.5866 
*END

*D_NET *66 0.000414146
*CONN
*I *1472:D I *D sky130_fd_sc_hd__dfrtp_2
*I *1096:Y O *D sky130_fd_sc_hd__xnor2_2
*CAP
1 *1472:D 7.81797e-05
2 *1096:Y 7.81797e-05
3 *1472:D *1210:A 5.33005e-05
4 *1472:D *1472:CLK 0.000101233
5 *1472:D *437:45 0.000103253
*RES
1 *1096:Y *1472:D 29.475 
*END

*D_NET *67 0.00185568
*CONN
*I *1446:GATE I *D sky130_fd_sc_hd__dlclkp_2
*I *1443:Y O *D sky130_fd_sc_hd__nor2_2
*CAP
1 *1446:GATE 0.000498675
2 *1443:Y 0.000498675
3 *1446:GATE *1290:A3 6.05161e-06
4 *1446:GATE *1291:A 2.58821e-05
5 *1446:GATE *1291:B 0.000140933
6 *1446:GATE *1436:A1 0
7 *1446:GATE *1436:B2 0.000209083
8 *1446:GATE *1437:A2_N 0.000176258
9 *1446:GATE *130:93 0.000146972
10 *1446:GATE *174:20 9.80173e-05
11 *1446:GATE *472:51 5.51376e-05
*RES
1 *1443:Y *1446:GATE 36.6179 
*END

*D_NET *68 0.000544414
*CONN
*I *1473:D I *D sky130_fd_sc_hd__dfxtp_2
*I *1243:Y O *D sky130_fd_sc_hd__nor2_2
*CAP
1 *1473:D 0.000142477
2 *1243:Y 0.000142477
3 *1473:D *1475:D 4.56383e-05
4 *1473:D *1555:A 2.80292e-05
5 *1473:D *530:6 0.000185794
*RES
1 *1243:Y *1473:D 30.7473 
*END

*D_NET *69 0.000287841
*CONN
*I *1474:D I *D sky130_fd_sc_hd__dfxtp_2
*I *1248:X O *D sky130_fd_sc_hd__and3_2
*CAP
1 *1474:D 7.48e-05
2 *1248:X 7.48e-05
3 *1474:D *1248:B 5.30637e-06
4 *1474:D *255:12 8.89117e-05
5 *1474:D *255:20 4.40234e-05
*RES
1 *1248:X *1474:D 20.2786 
*END

*D_NET *70 0.00139621
*CONN
*I *1475:D I *D sky130_fd_sc_hd__dfxtp_2
*I *1255:Y O *D sky130_fd_sc_hd__nor2_2
*CAP
1 *1475:D 0.000450224
2 *1255:Y 0.000450224
3 *1475:D *1255:A 0.000177941
4 *1475:D *1433:A1_N 5.80217e-05
5 *1475:D *1475:CLK 0
6 *1475:D *1522:A 0
7 *1475:D *1547:A 6.22404e-05
8 *1475:D *1555:A 0
9 *1475:D *419:50 0
10 *1475:D *469:8 0
11 uio_out[7] *1475:D 0.000151917
12 *1473:D *1475:D 4.56383e-05
*RES
1 *1255:Y *1475:D 37.3366 
*END

*D_NET *71 0.000395967
*CONN
*I *1476:D I *D sky130_fd_sc_hd__dfxtp_2
*I *1261:X O *D sky130_fd_sc_hd__and3_2
*CAP
1 *1476:D 0.000159198
2 *1261:X 0.000159198
3 *1476:D *1261:B 4.24261e-05
4 *1476:D *267:6 1.74503e-05
5 *1476:D *269:17 1.28171e-05
6 *1476:D *590:83 4.87669e-06
*RES
1 *1261:X *1476:D 30.2473 
*END

*D_NET *72 0.000958219
*CONN
*I *1477:D I *D sky130_fd_sc_hd__dfxtp_2
*I *1267:Y O *D sky130_fd_sc_hd__nor2_2
*CAP
1 *1477:D 0.000232835
2 *1267:Y 0.000232835
3 *1477:D *1245:A 0
4 *1477:D *1267:A 1.39726e-05
5 *1477:D *1267:B 0.000144773
6 *1477:D *419:217 0.000147136
7 *1477:D *471:10 0
8 uio_out[3] *1477:D 0.000186669
*RES
1 *1267:Y *1477:D 33.0152 
*END

*D_NET *73 0.000657793
*CONN
*I *1478:D I *D sky130_fd_sc_hd__dfxtp_2
*I *1273:X O *D sky130_fd_sc_hd__and3b_2
*CAP
1 *1478:D 0.000212108
2 *1273:X 0.000212108
3 *1478:D *1479:CLK 5.29648e-05
4 *1478:D *79:34 9.56968e-05
5 *1478:D *81:18 0
6 *1478:D *472:6 4.87669e-06
7 *1478:D *533:85 5.71472e-05
8 uo_out[6] *1478:D 2.28904e-05
*RES
1 *1273:X *1478:D 32.3723 
*END

*D_NET *74 0.000405944
*CONN
*I *1479:D I *D sky130_fd_sc_hd__dfxtp_2
*I *1279:X O *D sky130_fd_sc_hd__and3b_2
*CAP
1 *1479:D 4.3792e-05
2 *1279:X 4.3792e-05
3 *1479:D *1279:A_N 0
4 *1479:D *1279:B 9.22103e-06
5 *1479:D *1479:CLK 0.00013001
6 *1479:D *275:14 5.30637e-06
7 *1479:D *473:12 0.000173823
*RES
1 *1279:X *1479:D 20.658 
*END

*D_NET *75 0.000589011
*CONN
*I *1480:D I *D sky130_fd_sc_hd__dfxtp_2
*I *1282:X O *D sky130_fd_sc_hd__o21a_2
*CAP
1 *1480:D 0.000171461
2 *1282:X 0.000171461
3 *1480:D *1282:B1 0
4 *1480:D *124:39 9.83442e-05
5 *1480:D *125:87 4.87669e-06
6 *1480:D *415:22 9.82585e-06
7 *1480:D *419:10 4.13122e-06
8 *1480:D *419:25 0.00012891
*RES
1 *1282:X *1480:D 30.658 
*END

*D_NET *76 0.000764076
*CONN
*I *1481:D I *D sky130_fd_sc_hd__dfxtp_2
*I *1287:X O *D sky130_fd_sc_hd__and3_2
*CAP
1 *1481:D 0.000172534
2 *1287:X 0.000172534
3 *1481:D *1284:B 0.000272682
4 *1481:D *470:10 4.87725e-05
5 *1481:D *472:51 9.75534e-05
6 *1481:D *475:32 0
*RES
1 *1287:X *1481:D 32.1759 
*END

*D_NET *77 0.0019583
*CONN
*I *1482:D I *D sky130_fd_sc_hd__dfxtp_2
*I *1291:Y O *D sky130_fd_sc_hd__nor2_2
*CAP
1 *1482:D 0.000326957
2 *1291:Y 0.000326957
3 *1482:D *1250:A 8.36572e-05
4 *1482:D *1288:A 2.59355e-05
5 *1482:D *1291:A 9.60939e-05
6 *1482:D *122:6 9.41642e-05
7 *1482:D *419:35 0.000574224
8 *1482:D *469:14 0.000168598
9 *1482:D *476:10 9.46929e-05
10 uio_oe[5] *1482:D 0.000167019
*RES
1 *1291:Y *1482:D 37.1223 
*END

*D_NET *78 0.000362792
*CONN
*I *1502:D I *D sky130_fd_sc_hd__dfxtp_2
*I *1293:X O *D sky130_fd_sc_hd__and2_2
*CAP
1 *1502:D 7.45152e-05
2 *1293:X 7.45152e-05
3 *1502:D *1293:A 3.18676e-05
4 *1502:D *1392:A 0.0001399
5 *1502:D *477:10 4.19935e-05
*RES
1 *1293:X *1502:D 20.6402 
*END

*D_NET *79 0.0115883
*CONN
*I *1494:D I *D sky130_fd_sc_hd__dfxtp_2
*I *601:DIODE I *D sky130_fd_sc_hd__diode_2
*I *1371:Y O *D sky130_fd_sc_hd__a21oi_2
*CAP
1 *1494:D 0
2 *601:DIODE 0.000197564
3 *1371:Y 0.00150307
4 *79:34 0.00180503
5 *79:20 0.00311054
6 *601:DIODE *1271:A2 5.33005e-05
7 *601:DIODE *1272:B1 4.58976e-05
8 *79:20 *1346:A 3.47641e-06
9 *79:20 *1348:A 0
10 *79:20 *1351:A2 1.38167e-05
11 *79:20 *1351:A3 0.000266479
12 *79:20 *1365:B1 5.42011e-05
13 *79:20 *1371:B1 1.21289e-05
14 *79:20 *1382:B1 4.31823e-05
15 *79:20 *1391:A1 0.000207566
16 *79:20 *1408:A 0.000109267
17 *79:20 *1510:CLK 2.59355e-05
18 *79:20 *1510:D 0.000207858
19 *79:20 *1536:A 6.29133e-05
20 *79:20 *1586:A 0.000211786
21 *79:20 *81:18 0.000175092
22 *79:20 *186:33 0.000666034
23 *79:20 *227:20 2.32517e-05
24 *79:20 *322:56 0.000147508
25 *79:20 *371:22 9.80173e-05
26 *79:20 *387:12 7.96587e-06
27 *79:20 *535:39 0
28 *79:34 *1182:B 5.65955e-05
29 *79:34 *1479:CLK 0.000614974
30 *79:34 *1501:CLK 0.00010096
31 *79:34 *1501:D 0.000171906
32 *79:34 *1536:A 0.000517439
33 *79:34 *81:18 0
34 *79:34 *82:20 0.000341662
35 *79:34 *222:6 0.000187042
36 *79:34 *473:12 0.000218236
37 *79:34 *587:70 0.000133109
38 *79:34 *590:99 0
39 *79:34 *599:10 9.87672e-05
40 *1478:D *79:34 9.56968e-05
*RES
1 *1371:Y *79:20 47.3893 
2 *79:20 *79:34 43.7366 
3 *79:34 *601:DIODE 11.992 
4 *79:34 *1494:D 9.3 
*END

*D_NET *80 0.0102055
*CONN
*I *1495:D I *D sky130_fd_sc_hd__dfxtp_2
*I *1378:X O *D sky130_fd_sc_hd__o211a_2
*CAP
1 *1495:D 0
2 *1378:X 0.000931897
3 *80:56 0.00177767
4 *80:30 0.00270957
5 *80:30 *1362:A2 9.61455e-05
6 *80:30 *1362:B1_N 2.75386e-05
7 *80:30 *1373:A1 5.49489e-05
8 *80:30 *1378:B1 2.84209e-05
9 *80:30 *1384:B1 1.15407e-05
10 *80:30 *1405:A 8.3722e-05
11 *80:30 *1416:B 0.000255164
12 *80:30 *1417:A2 0.000282299
13 *80:30 *1511:D 0.00018372
14 *80:30 *355:18 0
15 *80:30 *363:6 4.18895e-05
16 *80:30 *363:10 0.000136096
17 *80:30 *365:14 3.22095e-05
18 *80:30 *372:20 5.49489e-05
19 *80:30 *496:12 0.000117621
20 *80:56 *1149:B 6.26276e-05
21 *80:56 *1193:A 0.000169322
22 *80:56 *1193:B 1.02821e-05
23 *80:56 *1197:B1 0.00027732
24 *80:56 *1198:A2 0.000177821
25 *80:56 *1199:A 0.000927227
26 *80:56 *1200:B 0.000271381
27 *80:56 *1201:A 0.000195809
28 *80:56 *1201:B 5.49489e-05
29 *80:56 *1338:B 7.69598e-05
30 *80:56 *1348:B 0.000328094
31 *80:56 *1410:A 1.02821e-05
32 *80:56 *1489:RESET_B 9.52287e-06
33 *80:56 *1490:CLK 7.61504e-05
34 *80:56 *1511:D 0
35 *80:56 *1512:D 0
36 *80:56 *191:10 0
37 *80:56 *222:31 0.000287472
38 *80:56 *453:59 0.000201626
39 *80:56 *512:28 9.41642e-05
40 *80:56 *535:8 9.41642e-05
41 *80:56 *535:39 0
42 uo_out[2] *80:56 5.49489e-05
*RES
1 *1378:X *80:30 42.9964 
2 *80:30 *80:56 44.183 
3 *80:56 *1495:D 9.3 
*END

*D_NET *81 0.0120453
*CONN
*I *1496:D I *D sky130_fd_sc_hd__dfxtp_2
*I *1382:Y O *D sky130_fd_sc_hd__a21oi_2
*CAP
1 *1496:D 0.000215652
2 *1382:Y 0.00293035
3 *81:18 0.00314601
4 *1496:D *1496:CLK 0.000624867
5 *81:18 *1152:A 0.000173785
6 *81:18 *1347:B 9.01653e-05
7 *81:18 *1351:A2 4.11884e-05
8 *81:18 *1479:CLK 0
9 *81:18 *1498:D 0
10 *81:18 *1523:A 0.000154762
11 *81:18 *1575:A 0
12 *81:18 *194:35 0.000889329
13 *81:18 *194:68 0.000296594
14 *81:18 *222:14 0.00158244
15 *81:18 *222:31 0.000689163
16 *81:18 *227:20 0
17 *81:18 *338:14 0
18 *81:18 *372:20 0.000206527
19 *81:18 *419:217 0
20 *81:18 *426:70 0.000102037
21 *81:18 *426:87 0.000118652
22 *81:18 *533:85 1.94879e-05
23 *81:18 *587:70 0.000349657
24 *81:18 *588:84 0
25 *81:18 *590:99 2.21225e-05
26 *81:18 *597:14 0.000185906
27 uo_out[6] *81:18 3.15196e-05
28 *1478:D *81:18 0
29 *79:20 *81:18 0.000175092
30 *79:34 *81:18 0
*RES
1 *1382:Y *81:18 46.1556 
2 *81:18 *1496:D 15.2152 
*END

*D_NET *82 0.0134873
*CONN
*I *1497:D I *D sky130_fd_sc_hd__dfxtp_2
*I *1387:X O *D sky130_fd_sc_hd__o311a_2
*CAP
1 *1497:D 0.000595952
2 *1387:X 0.001936
3 *82:20 0.00253195
4 *1497:D *1179:A 1.08359e-05
5 *1497:D *1179:B 0.000443377
6 *1497:D *1182:B 0
7 *1497:D *1195:B 2.21038e-05
8 *1497:D *1196:B2 0
9 *1497:D *1445:CLK 1.65558e-05
10 *1497:D *1498:D 0
11 *1497:D *426:28 0
12 *1497:D *426:41 0
13 *1497:D *587:70 0
14 *82:20 *1182:B 5.49489e-05
15 *82:20 *1299:A_N 9.60337e-06
16 *82:20 *1444:CLK 0.000191574
17 *82:20 *1536:A 9.90367e-05
18 *82:20 *1542:A 0.00281053
19 *82:20 *1598:addr[0] 0.000707041
20 *82:20 *222:6 0.000185118
21 *82:20 *296:14 0.00149507
22 *82:20 *355:18 0.0004914
23 *82:20 *372:20 0
24 *82:20 *528:12 5.35941e-05
25 *82:20 *528:70 0
26 *82:20 *587:70 0.000954416
27 *82:20 *588:84 0.000536489
28 *82:20 *590:115 0
29 *79:34 *82:20 0.000341662
*RES
1 *1387:X *82:20 46.0956 
2 *82:20 *1497:D 28.5187 
*END

*D_NET *83 0.0114255
*CONN
*I *1498:D I *D sky130_fd_sc_hd__dfxtp_2
*I *1391:Y O *D sky130_fd_sc_hd__a21oi_2
*CAP
1 *1498:D 0.0019806
2 *1391:Y 0.000944615
3 *83:28 0.00292521
4 *1498:D *1179:A 1.32552e-05
5 *1498:D *1179:B 5.19842e-06
6 *1498:D *1196:B2 0.000239563
7 *1498:D *1445:CLK 1.74352e-05
8 *1498:D *1499:D 0.000319326
9 *1498:D *1523:A 0
10 *1498:D *418:8 3.88525e-05
11 *1498:D *418:23 3.40072e-05
12 *1498:D *426:26 0
13 *1498:D *426:28 0
14 *1498:D *426:41 0
15 *1498:D *426:70 0
16 *1498:D *426:133 0.000190948
17 *1498:D *587:70 9.19099e-05
18 *83:28 *1194:A 8.58784e-05
19 *83:28 *1338:A 0.00016211
20 *83:28 *1408:A 6.25005e-05
21 *83:28 *1499:D 0.000399835
22 *83:28 *1587:A 0.000215738
23 *83:28 *217:27 0.000379365
24 *83:28 *222:14 0.000398833
25 *83:28 *222:31 0.000130846
26 *83:28 *297:6 0.000357945
27 *83:28 *322:56 0.000815361
28 *83:28 *372:20 0.000528721
29 *83:28 *446:27 0.000140933
30 *83:28 *553:29 0.00073856
31 uo_out[3] *1498:D 0.000208001
32 *1497:D *1498:D 0
33 *81:18 *1498:D 0
*RES
1 *1391:Y *83:28 48.7097 
2 *83:28 *1498:D 47.8223 
*END

*D_NET *84 0.0104932
*CONN
*I *1499:D I *D sky130_fd_sc_hd__dfxtp_2
*I *1396:X O *D sky130_fd_sc_hd__o211a_2
*CAP
1 *1499:D 0.00141407
2 *1396:X 0.00163555
3 *84:24 0.00304961
4 *1499:D *1182:A 0.000103667
5 *1499:D *1196:B1 0.000358036
6 *1499:D *1198:A1 5.71472e-05
7 *1499:D *1202:B 4.04691e-06
8 *1499:D *1444:CLK 0
9 *1499:D *1492:CLK 0.000179717
10 *1499:D *1512:CLK 7.43578e-06
11 *1499:D *1534:A 0.000174673
12 *1499:D *1587:A 8.5567e-05
13 *1499:D *221:10 7.06479e-05
14 *1499:D *418:23 0.000175529
15 *1499:D *418:119 0.000162832
16 *1499:D *426:20 5.05572e-05
17 *84:24 *1351:A2 1.74352e-05
18 *84:24 *1351:A3 0.000243038
19 *84:24 *1351:B1 5.04589e-05
20 *84:24 *1352:C 0.000566258
21 *84:24 *1384:A2 9.90431e-05
22 *84:24 *1392:A 2.09897e-05
23 *84:24 *1396:A1 9.25014e-06
24 *84:24 *1396:A2 5.74562e-05
25 *84:24 *1396:B1 5.62995e-05
26 *84:24 *1412:A 4.03318e-05
27 *84:24 *1414:B 4.40586e-05
28 *84:24 *1418:A 0.000439166
29 *84:24 *1425:A 0
30 *84:24 *1512:CLK 1.39726e-05
31 *84:24 *1512:D 7.94012e-05
32 *84:24 *1516:D 0.000150406
33 *84:24 *1521:D 0
34 *84:24 *1549:A 0.000125724
35 *84:24 *417:72 1.16111e-05
36 *84:24 *417:81 0.000114393
37 *84:24 *478:8 9.60939e-05
38 *84:24 *483:10 0
39 *1493:D *1499:D 9.54798e-06
40 *1498:D *1499:D 0.000319326
41 *83:28 *1499:D 0.000399835
*RES
1 *1396:X *84:24 47.9786 
2 *84:24 *1499:D 48.2152 
*END

*D_NET *85 0.00120368
*CONN
*I *1500:D I *D sky130_fd_sc_hd__dfxtp_2
*I *1398:X O *D sky130_fd_sc_hd__o21a_2
*CAP
1 *1500:D 0.000357404
2 *1398:X 0.000357404
3 *1500:D *602:CLK 0.000147583
4 *1500:D *1153:A 6.05161e-06
5 *1500:D *1397:A3 9.51899e-05
6 *1500:D *1398:A1 2.57126e-05
7 *1500:D *1398:A2 6.05161e-06
8 *1500:D *1398:B1 7.14469e-05
9 *1500:D *294:22 3.98547e-05
10 *1500:D *426:89 1.02504e-05
11 *1500:D *526:93 5.37951e-05
12 *1500:D *586:74 3.29354e-05
*RES
1 *1398:X *1500:D 34.1893 
*END

*D_NET *86 0.000550795
*CONN
*I *1501:D I *D sky130_fd_sc_hd__dfxtp_2
*I *1400:X O *D sky130_fd_sc_hd__a21o_2
*CAP
1 *1501:D 0.000189445
2 *1400:X 0.000189445
3 *1501:D *597:14 0
4 *79:34 *1501:D 0.000171906
*RES
1 *1400:X *1501:D 30.8723 
*END

*D_NET *87 0.00176708
*CONN
*I *1503:D I *D sky130_fd_sc_hd__dfxtp_2
*I *1401:X O *D sky130_fd_sc_hd__and2_2
*CAP
1 *1503:D 0.000607635
2 *1401:X 0.000607635
3 *1503:D *1401:A 3.92757e-05
4 *1503:D *1422:B 0
5 *1503:D *1423:B 0
6 *1503:D *488:8 0.000494696
7 *1503:D *489:12 1.78353e-05
*RES
1 *1401:X *1503:D 39.0152 
*END

*D_NET *88 0.000519473
*CONN
*I *1504:D I *D sky130_fd_sc_hd__dfxtp_2
*I *1402:X O *D sky130_fd_sc_hd__and2_2
*CAP
1 *1504:D 0.00011616
2 *1402:X 0.00011616
3 *1504:D *1354:C 0.000152333
4 *1504:D *1402:A 5.33005e-05
5 *1504:D *490:14 8.15207e-05
*RES
1 *1402:X *1504:D 30.2473 
*END

*D_NET *89 0.000867067
*CONN
*I *1505:D I *D sky130_fd_sc_hd__dfxtp_2
*I *1403:X O *D sky130_fd_sc_hd__and2_2
*CAP
1 *1505:D 0.000264253
2 *1403:X 0.000264253
3 *1505:D *1505:CLK 0.000128093
4 *1505:D *362:77 0.00010326
5 *1505:D *371:22 7.74262e-05
6 *1505:D *564:8 1.07719e-05
7 *1505:D *564:36 1.90111e-05
*RES
1 *1403:X *1505:D 32.6223 
*END

*D_NET *90 0.000652223
*CONN
*I *1506:D I *D sky130_fd_sc_hd__dfxtp_2
*I *1404:X O *D sky130_fd_sc_hd__and2_2
*CAP
1 *1506:D 0.000169667
2 *1404:X 0.000169667
3 *1506:D *1346:B 3.04085e-05
4 *1506:D *1506:CLK 9.54168e-05
5 *1506:D *296:26 0.000126792
6 *1506:D *417:64 6.02722e-05
*RES
1 *1404:X *1506:D 22.0152 
*END

*D_NET *91 0.000916536
*CONN
*I *1507:D I *D sky130_fd_sc_hd__dfxtp_2
*I *1405:X O *D sky130_fd_sc_hd__and2_2
*CAP
1 *1507:D 0.000228134
2 *1405:X 0.000228134
3 *1507:D *387:12 0
4 *1507:D *417:64 0.000269739
5 *1507:D *494:14 0.000153168
6 *1507:D *535:39 3.73619e-05
*RES
1 *1405:X *1507:D 32.7116 
*END

*D_NET *92 0.000918425
*CONN
*I *1508:D I *D sky130_fd_sc_hd__dfxtp_2
*I *1406:X O *D sky130_fd_sc_hd__and2_2
*CAP
1 *1508:D 0.000124775
2 *1406:X 0.000124775
3 *1508:D *1177:B 3.69047e-06
4 *1508:D *1508:CLK 5.71472e-05
5 *1508:D *217:8 6.24995e-05
6 *1508:D *446:31 0.000149911
7 *1508:D *525:24 8.83454e-05
8 *1508:D *533:54 0.000307282
*RES
1 *1406:X *1508:D 32.4571 
*END

*D_NET *93 0.000443368
*CONN
*I *1509:D I *D sky130_fd_sc_hd__dfxtp_2
*I *1407:X O *D sky130_fd_sc_hd__and2_2
*CAP
1 *1509:D 6.32672e-05
2 *1407:X 6.32672e-05
3 *1509:D *1406:A 8.33504e-05
4 *1509:D *176:42 8.52674e-05
5 *1509:D *294:32 4.84486e-05
6 *1509:D *417:10 9.97669e-05
*RES
1 *1407:X *1509:D 29.7473 
*END

*D_NET *94 0.000506364
*CONN
*I *1510:D I *D sky130_fd_sc_hd__dfxtp_2
*I *1408:X O *D sky130_fd_sc_hd__and2_2
*CAP
1 *1510:D 6.81918e-05
2 *1408:X 6.81918e-05
3 *1510:D *1586:A 0.000162122
4 *79:20 *1510:D 0.000207858
*RES
1 *1408:X *1510:D 20.6402 
*END

*D_NET *95 0.00216906
*CONN
*I *1511:D I *D sky130_fd_sc_hd__dfxtp_2
*I *1409:X O *D sky130_fd_sc_hd__and2_2
*CAP
1 *1511:D 0.000535782
2 *1409:X 0.000535782
3 *1511:D *1405:A 3.23288e-05
4 *1511:D *1409:A 1.82657e-05
5 *1511:D *1574:A 6.05161e-06
6 *1511:D *222:31 7.93165e-05
7 *1511:D *496:12 0.00031134
8 *1511:D *535:39 0.000424324
9 *1511:D *553:58 4.21497e-05
10 *80:30 *1511:D 0.00018372
11 *80:56 *1511:D 0
*RES
1 *1409:X *1511:D 39.0152 
*END

*D_NET *96 0.0019
*CONN
*I *1512:D I *D sky130_fd_sc_hd__dfxtp_2
*I *1410:X O *D sky130_fd_sc_hd__and2_2
*CAP
1 *1512:D 0.00051307
2 *1410:X 0.00051307
3 *1512:D *1193:A 0
4 *1512:D *1410:A 7.83659e-05
5 *1512:D *1410:B 0.000331058
6 *1512:D *1491:SET_B 0
7 *1512:D *1574:A 4.84853e-05
8 *1512:D *535:39 0.0002877
9 *1512:D *587:90 4.88515e-05
10 *80:56 *1512:D 0
11 *84:24 *1512:D 7.94012e-05
*RES
1 *1410:X *1512:D 38.1937 
*END

*D_NET *97 0.00153384
*CONN
*I *1513:D I *D sky130_fd_sc_hd__dfxtp_2
*I *1411:X O *D sky130_fd_sc_hd__and2_2
*CAP
1 *1513:D 0.000258024
2 *1411:X 0.000258024
3 *1513:D *1350:B 6.05161e-06
4 *1513:D *1411:B 0.000125731
5 *1513:D *1513:CLK 0.000568338
6 *1513:D *477:94 0.000130061
7 *1513:D *479:8 0.00018761
*RES
1 *1411:X *1513:D 35.283 
*END

*D_NET *98 0.00231946
*CONN
*I *1514:D I *D sky130_fd_sc_hd__dfxtp_2
*I *1412:X O *D sky130_fd_sc_hd__and2_2
*CAP
1 *1514:D 0.000640616
2 *1412:X 0.000640616
3 *1514:D *1417:A2 0
4 *1514:D *1417:B1 0.000353913
5 *1514:D *1418:A 0.00033423
6 *1514:D *1514:CLK 0
7 *1514:D *417:68 0
8 *1514:D *417:171 0
9 *1514:D *426:12 4.87669e-06
10 *1514:D *477:16 0.000141131
11 *1590:A *1514:D 0.000204073
*RES
1 *1412:X *1514:D 40.783 
*END

*D_NET *99 0.00184237
*CONN
*I *1515:D I *D sky130_fd_sc_hd__dfxtp_2
*I *1413:X O *D sky130_fd_sc_hd__and2_2
*CAP
1 *1515:D 0.000432566
2 *1413:X 0.000432566
3 *1515:D *1351:C1 0.000136958
4 *1515:D *1413:B 0.000169683
5 *1515:D *1514:CLK 0
6 *1515:D *1515:CLK 0.000190948
7 *1515:D *417:175 0.000294906
8 *1515:D *426:16 0.000184745
*RES
1 *1413:X *1515:D 36.3009 
*END

*D_NET *100 0.000470319
*CONN
*I *1516:D I *D sky130_fd_sc_hd__dfxtp_2
*I *1414:X O *D sky130_fd_sc_hd__and2_2
*CAP
1 *1516:D 6.18314e-05
2 *1414:X 6.18314e-05
3 *1516:D *1414:B 5.65955e-05
4 *1516:D *1516:CLK 1.00733e-05
5 *1516:D *417:72 2.36643e-05
6 *1516:D *417:81 0.000105917
7 *84:24 *1516:D 0.000150406
*RES
1 *1414:X *1516:D 21.2429 
*END

*D_NET *101 0.000912586
*CONN
*I *1517:D I *D sky130_fd_sc_hd__dfxtp_2
*I *1417:X O *D sky130_fd_sc_hd__o21a_2
*CAP
1 *1517:D 0.000277143
2 *1417:X 0.000277143
3 *1517:D *1577:A 0.000358301
*RES
1 *1417:X *1517:D 32.3902 
*END

*D_NET *102 0.000319909
*CONN
*I *1518:D I *D sky130_fd_sc_hd__dfxtp_2
*I *1418:X O *D sky130_fd_sc_hd__and2_2
*CAP
1 *1518:D 4.18359e-05
2 *1418:X 4.18359e-05
3 *1518:D *1352:A 0.000102545
4 *1518:D *1414:A 0.000100823
5 *1518:D *1518:CLK 1.64343e-05
6 *1518:D *1578:A 1.64343e-05
*RES
1 *1418:X *1518:D 29.1045 
*END

*D_NET *103 0.00560046
*CONN
*I *1519:D I *D sky130_fd_sc_hd__dfxtp_2
*I *1421:X O *D sky130_fd_sc_hd__o21a_2
*CAP
1 *1519:D 0
2 *1421:X 0.00116531
3 *103:30 0.00116531
4 *103:30 *1349:C 0.00026546
5 *103:30 *1350:D 0.000159846
6 *103:30 *1351:B1 0.000861814
7 *103:30 *1414:A 9.57191e-05
8 *103:30 *1417:A2 0.000143366
9 *103:30 *1417:B1 0.000180951
10 *103:30 *1418:A 0.000220935
11 *103:30 *1421:A1 1.33343e-05
12 *103:30 *1519:CLK 0.000234479
13 *103:30 *1550:A 0.000243758
14 *103:30 *1576:A 0.000186669
15 *103:30 *1578:A 0.000158274
16 *103:30 *417:125 3.14193e-05
17 *103:30 *484:8 8.06826e-05
18 *103:30 *512:28 0.000299638
19 *1590:A *103:30 9.34896e-05
*RES
1 *1421:X *103:30 46.2509 
2 *103:30 *1519:D 9.3 
*END

*D_NET *104 0.000753254
*CONN
*I *1520:D I *D sky130_fd_sc_hd__dfxtp_2
*I *1424:X O *D sky130_fd_sc_hd__o21a_2
*CAP
1 *1520:D 0.00029776
2 *1424:X 0.00029776
3 *1520:D *1421:A1 0
4 *1520:D *1421:A2 5.63101e-05
5 *1520:D *1421:B1 3.93986e-05
6 *1520:D *1424:A2 0
7 *1520:D *417:131 0
8 *1520:D *485:10 4.87669e-06
9 *1520:D *486:27 5.71472e-05
*RES
1 *1424:X *1520:D 32.6759 
*END

*D_NET *105 0.00096668
*CONN
*I *1521:D I *D sky130_fd_sc_hd__dfxtp_2
*I *1425:X O *D sky130_fd_sc_hd__and2_2
*CAP
1 *1521:D 0.000238503
2 *1425:X 0.000238503
3 *1521:D *1384:A2 5.52238e-05
4 *1521:D *1396:B1 2.89114e-05
5 *1521:D *1425:A 0
6 *1521:D *1425:B 4.46186e-06
7 *1521:D *1549:A 0
8 *1521:D *1598:addr[2] 0.000384642
9 *1521:D *417:92 1.64343e-05
10 *84:24 *1521:D 0
*RES
1 *1425:X *1521:D 33.283 
*END

*D_NET *106 0.000833173
*CONN
*I *1450:D I *D sky130_fd_sc_hd__dfrtp_2
*I *1230:Y O *D sky130_fd_sc_hd__xnor2_2
*CAP
1 *1450:D 0.000207791
2 *1230:Y 0.000207791
3 *1450:D *1449:RESET_B 5.42764e-05
4 *1450:D *1454:RESET_B 0
5 *1450:D *430:12 0.000102664
6 *1450:D *582:55 0.000146075
7 *1450:D *585:69 0.000114577
*RES
1 *1230:Y *1450:D 32.5464 
*END

*D_NET *107 0.000785992
*CONN
*I *1454:D I *D sky130_fd_sc_hd__dfrtp_2
*I *1228:Y O *D sky130_fd_sc_hd__xnor2_2
*CAP
1 *1454:D 0.000297627
2 *1228:Y 0.000297627
3 *1454:D *1230:A 0
4 *1454:D *1454:CLK 0
5 *1454:D *1563:A 1.01912e-05
6 *1454:D *427:14 0.000125316
7 *1454:D *430:20 5.52302e-05
8 *1454:D *589:146 0
*RES
1 *1228:Y *1454:D 32.7429 
*END

*D_NET *108 0.000952474
*CONN
*I *1459:D I *D sky130_fd_sc_hd__dfrtp_2
*I *1226:Y O *D sky130_fd_sc_hd__xnor2_2
*CAP
1 *1459:D 0.000170314
2 *1226:Y 0.000170314
3 *1459:D *1226:A 0.000145921
4 *1459:D *1227:B 7.27671e-05
5 *1459:D *1228:B 0.000313051
6 *1459:D *589:130 8.01067e-05
*RES
1 *1226:Y *1459:D 32.85 
*END

*D_NET *109 0.000267901
*CONN
*I *1464:D I *D sky130_fd_sc_hd__dfrtp_2
*I *1224:Y O *D sky130_fd_sc_hd__xnor2_2
*CAP
1 *1464:D 8.5912e-05
2 *1224:Y 8.5912e-05
3 *1464:D *1224:A 9.60771e-05
*RES
1 *1224:Y *1464:D 20.3679 
*END

*D_NET *110 0.000348683
*CONN
*I *1449:D I *D sky130_fd_sc_hd__dfrtp_2
*I *1222:Y O *D sky130_fd_sc_hd__xnor2_2
*CAP
1 *1449:D 0.000105402
2 *1222:Y 0.000105402
3 *1449:D *1222:B 5.71472e-05
4 *1449:D *1449:CLK 8.07313e-05
*RES
1 *1222:Y *1449:D 20.7786 
*END

*D_NET *111 0.000589692
*CONN
*I *1451:D I *D sky130_fd_sc_hd__dfrtp_2
*I *1220:Y O *D sky130_fd_sc_hd__xnor2_2
*CAP
1 *1451:D 0.000181463
2 *1220:Y 0.000181463
3 *1451:D *1220:A 0.000226767
4 *1451:D *1220:B 0
*RES
1 *1220:Y *1451:D 31.2071 
*END

*D_NET *112 0.00113913
*CONN
*I *1452:D I *D sky130_fd_sc_hd__dfrtp_2
*I *1218:Y O *D sky130_fd_sc_hd__xnor2_2
*CAP
1 *1452:D 0.00024616
2 *1218:Y 0.00024616
3 *1452:D *1217:A 0.000393956
4 *1452:D *1565:A 0.000168325
5 *1452:D *443:10 7.35864e-05
6 *1452:D *443:21 1.0945e-05
*RES
1 *1218:Y *1452:D 33.6714 
*END

*D_NET *113 0.000755061
*CONN
*I *1453:D I *D sky130_fd_sc_hd__dfstp_2
*I *1216:Y O *D sky130_fd_sc_hd__xnor2_2
*CAP
1 *1453:D 0.000247783
2 *1216:Y 0.000247783
3 *1453:D *1216:A 6.05161e-06
4 *1453:D *1218:B 0
5 *1453:D *1452:CLK 5.49544e-05
6 *1453:D *1453:CLK 0.000190053
7 *1453:D *1565:A 0
8 *1453:D *589:14 8.43535e-06
*RES
1 *1216:Y *1453:D 41.1714 
*END

*D_NET *114 0.000322245
*CONN
*I *1455:D I *D sky130_fd_sc_hd__dfrtp_2
*I *1214:Y O *D sky130_fd_sc_hd__xnor2_2
*CAP
1 *1455:D 9.24517e-05
2 *1214:Y 9.24517e-05
3 *1455:D *1565:A 8.45518e-05
4 *1455:D *427:115 3.4846e-06
5 *1455:D *427:117 4.9305e-05
*RES
1 *1214:Y *1455:D 29.85 
*END

*D_NET *115 0.00080373
*CONN
*I *1457:D I *D sky130_fd_sc_hd__dfrtp_2
*I *1212:Y O *D sky130_fd_sc_hd__xnor2_2
*CAP
1 *1457:D 0.000201346
2 *1212:Y 0.000201346
3 *1457:D *1212:A 0.000182598
4 *1457:D *1214:B 0
5 *1457:D *1458:CLK 0.000161327
6 *1457:D *427:146 5.71124e-05
*RES
1 *1212:Y *1457:D 32.225 
*END

*D_NET *116 0.000445942
*CONN
*I *1458:D I *D sky130_fd_sc_hd__dfrtp_2
*I *1210:Y O *D sky130_fd_sc_hd__xnor2_2
*CAP
1 *1458:D 0.000207098
2 *1210:Y 0.000207098
3 *1458:D *1210:B 0
4 *1458:D *1212:B 0
5 *1458:D *1458:CLK 3.17465e-05
*RES
1 *1210:Y *1458:D 30.783 
*END

*D_NET *117 0.000290631
*CONN
*I *1460:D I *D sky130_fd_sc_hd__dfrtp_2
*I *1208:Y O *D sky130_fd_sc_hd__xnor2_2
*CAP
1 *1460:D 0.000101458
2 *1208:Y 0.000101458
3 *1460:D *427:103 3.24856e-05
4 *1460:D *439:8 5.52302e-05
*RES
1 *1208:Y *1460:D 20.3679 
*END

*D_NET *118 0.0013314
*CONN
*I *1462:D I *D sky130_fd_sc_hd__dfrtp_2
*I *1206:Y O *D sky130_fd_sc_hd__xnor2_2
*CAP
1 *1462:D 0.000418121
2 *1206:Y 0.000418121
3 *1462:D *1206:A 9.77061e-05
4 *1462:D *1206:B 3.69697e-05
5 *1462:D *1222:A 0
6 *1462:D *1332:A2 0
7 *1462:D *1460:RESET_B 0.000360484
8 *1462:D *440:10 0
*RES
1 *1206:Y *1462:D 34.8679 
*END

*D_NET *119 0.000345423
*CONN
*I *1463:D I *D sky130_fd_sc_hd__dfrtp_2
*I *1204:Y O *D sky130_fd_sc_hd__xnor2_2
*CAP
1 *1463:D 0.000150812
2 *1204:Y 0.000150812
3 *1463:D *1221:A 4.37999e-05
4 *1463:D *585:44 0
5 *1463:D *591:30 0
*RES
1 *1204:Y *1463:D 30.2964 
*END

*D_NET *120 0.000413386
*CONN
*I *1461:D I *D sky130_fd_sc_hd__dfrtp_2
*I *1234:Y O *D sky130_fd_sc_hd__xnor2_2
*CAP
1 *1461:D 5.85882e-05
2 *1234:Y 5.85882e-05
3 *1461:D *1234:A 0.000148105
4 *1461:D *427:38 7.03295e-05
5 *1461:D *427:40 7.77751e-05
*RES
1 *1234:Y *1461:D 21.1893 
*END

*D_NET *121 0.00042569
*CONN
*I *1456:D I *D sky130_fd_sc_hd__dfrtp_2
*I *1232:Y O *D sky130_fd_sc_hd__xnor2_2
*CAP
1 *1456:D 0.000135059
2 *1232:Y 0.000135059
3 *1456:D *1129:B2 3.27526e-05
4 *1456:D *1456:CLK 2.28335e-05
5 *1456:D *427:40 9.99853e-05
*RES
1 *1232:Y *1456:D 29.8857 
*END

*D_NET *122 0.00481381
*CONN
*I *1250:A I *D sky130_fd_sc_hd__nor2_2
*I *1439:A1 I *D sky130_fd_sc_hd__a221o_2
*I *1063:Y O *D sky130_fd_sc_hd__inv_2
*CAP
1 *1250:A 0.0007933
2 *1439:A1 0.000326577
3 *1063:Y 0.000114698
4 *122:6 0.00123458
5 *1250:A *1243:B 3.14163e-05
6 *1250:A *1289:A1 0.000203659
7 *1250:A *1289:A2 0.000327423
8 *1250:A *1290:A1 7.83659e-05
9 *1250:A *1290:A2 9.22103e-06
10 *1250:A *1290:A3 1.39726e-05
11 *1250:A *1291:A 0.000238247
12 *1250:A *1436:A1 0.000120682
13 *1250:A *134:52 5.30637e-06
14 *1439:A1 *1128:B 0.000173934
15 *1439:A1 *1439:A2 0.000603422
16 *122:6 *469:14 3.69047e-06
17 uio_oe[3] *1250:A 9.88136e-05
18 uio_oe[5] *1439:A1 0.000258689
19 *1482:D *1250:A 8.36572e-05
20 *1482:D *122:6 9.41642e-05
*RES
1 *1063:Y *122:6 10.6571 
2 *122:6 *1439:A1 26.8536 
3 *122:6 *1250:A 32.3357 
*END

*D_NET *123 0.000833816
*CONN
*I *1438:A1 I *D sky130_fd_sc_hd__a221o_2
*I *1064:Y O *D sky130_fd_sc_hd__inv_2
*CAP
1 *1438:A1 0.000274699
2 *1064:Y 0.000274699
3 *1438:A1 *1128:B 3.72152e-05
4 *1438:A1 *1432:A2_N 9.60939e-05
5 *1438:A1 *1438:B1 0.000140518
6 *1438:A1 *132:18 1.05901e-05
*RES
1 *1064:Y *1438:A1 31.725 
*END

*D_NET *124 0.00536059
*CONN
*I *1285:A1 I *D sky130_fd_sc_hd__o21bai_2
*I *1282:A1 I *D sky130_fd_sc_hd__o21a_2
*I *1281:A1 I *D sky130_fd_sc_hd__a21oi_2
*I *1432:B1 I *D sky130_fd_sc_hd__a2bb2o_2
*I *1065:Y O *D sky130_fd_sc_hd__inv_2
*CAP
1 *1285:A1 0.000213428
2 *1282:A1 0
3 *1281:A1 0.000263906
4 *1432:B1 0.00042479
5 *1065:Y 0
6 *124:52 0.000275118
7 *124:39 0.000672238
8 *124:4 0.000771433
9 *1281:A1 *1234:B 6.05161e-06
10 *1281:A1 *1281:A2 0.000362929
11 *1281:A1 *593:104 0
12 *1285:A1 *1285:A2 0.000130075
13 *1285:A1 *1285:B1_N 5.52302e-05
14 *1285:A1 *1286:C1 0
15 *1285:A1 *288:12 9.54798e-06
16 *1285:A1 *290:6 5.52302e-05
17 *1285:A1 *474:8 0
18 *1432:B1 *1128:A 4.18834e-05
19 *1432:B1 *1436:A1 6.39808e-05
20 *1432:B1 *1437:B2 3.04394e-05
21 *1432:B1 *1442:A 2.89114e-05
22 *1432:B1 *1442:B 5.33005e-05
23 *1432:B1 *1442:C 2.84109e-05
24 *1432:B1 *1443:B 4.00349e-05
25 *1432:B1 *125:50 0.000494352
26 *1432:B1 *415:22 2.18902e-05
27 *1432:B1 *473:28 5.36313e-05
28 *1432:B1 *474:14 2.94709e-06
29 *1432:B1 *575:30 0.00057598
30 *1432:B1 *592:88 0.000213384
31 *124:39 *1282:B1 5.49489e-05
32 *124:39 *1429:A 0.00014742
33 *124:39 *285:6 5.33005e-05
34 *124:39 *474:14 4.55532e-05
35 *124:52 *1281:A2 2.13965e-05
36 *124:52 *1285:A2 5.05056e-05
37 *124:52 *474:8 0
38 *1480:D *124:39 9.83442e-05
*RES
1 *1065:Y *124:4 9.3 
2 *124:4 *1432:B1 31.8711 
3 *124:4 *124:39 10.9464 
4 *124:39 *1281:A1 18.8179 
5 *124:39 *124:52 1.03571 
6 *124:52 *1282:A1 13.8 
7 *124:52 *1285:A1 17.1214 
*END

*D_NET *125 0.0138887
*CONN
*I *1400:A1 I *D sky130_fd_sc_hd__a21o_2
*I *1397:B1 I *D sky130_fd_sc_hd__a31o_2
*I *1436:A2 I *D sky130_fd_sc_hd__a22o_2
*I *1236:A2 I *D sky130_fd_sc_hd__a22o_2
*I *1433:A2_N I *D sky130_fd_sc_hd__a2bb2o_2
*I *1066:Y O *D sky130_fd_sc_hd__inv_2
*CAP
1 *1400:A1 0.000574351
2 *1397:B1 1.45159e-05
3 *1436:A2 1.39493e-05
4 *1236:A2 0.000754369
5 *1433:A2_N 0
6 *1066:Y 8.31118e-05
7 *125:87 0.00226003
8 *125:50 0.00216394
9 *125:16 0.000907635
10 *125:12 0.000715199
11 *1236:A2 *1236:B1 1.19402e-05
12 *1236:A2 *1237:A1 0
13 *1236:A2 *1433:A1_N 0
14 *1236:A2 *1555:A 6.40917e-05
15 *1236:A2 *460:28 0.000134554
16 *1236:A2 *461:16 3.046e-05
17 *1236:A2 *476:10 5.7233e-05
18 *1236:A2 *590:83 0.000228558
19 *1400:A1 *1397:A2 1.39726e-05
20 *1400:A1 *1398:A2 7.49387e-06
21 *1400:A1 *1399:C1 5.33433e-05
22 *1400:A1 *1400:B1 2.89114e-05
23 *1400:A1 *1546:A 0.000315158
24 *1400:A1 *590:115 5.52302e-05
25 *1400:A1 *597:14 0
26 *1400:A1 *600:27 9.78828e-05
27 *1436:A2 *1436:A1 7.61963e-05
28 *1436:A2 *1442:A 3.95241e-05
29 *125:12 *473:28 7.33213e-05
30 *125:12 *575:30 0.000117172
31 *125:12 *588:26 7.08855e-05
32 *125:12 *590:83 2.22043e-05
33 *125:12 *591:65 9.60337e-06
34 *125:16 *1437:B1 3.30061e-05
35 *125:16 *1438:C1 0.000122933
36 *125:16 *473:28 5.31531e-05
37 *125:16 *476:10 1.59782e-05
38 *125:16 *590:83 0
39 *125:16 *591:65 5.41797e-06
40 *125:50 *1436:A1 2.17666e-05
41 *125:50 *1437:A2_N 2.53045e-05
42 *125:50 *130:93 1.0334e-05
43 *125:50 *473:28 0.0011717
44 *125:50 *575:30 0.000365851
45 *125:87 *602:CLK 0.000324519
46 *125:87 *1397:A2 7.56138e-05
47 *125:87 *1398:B1 2.59355e-05
48 *125:87 *1399:A1 0.000312199
49 *125:87 *1428:B 9.41642e-05
50 *125:87 *1436:A1 0.000129515
51 *125:87 *1440:A2 3.47641e-06
52 *125:87 *1441:B1 1.39841e-05
53 *125:87 *1441:C1 0.000356441
54 *125:87 *1442:A 6.05161e-06
55 *125:87 *1480:CLK 1.83053e-05
56 *125:87 *415:22 0.000193298
57 *125:87 *429:50 0.00013182
58 *125:87 *457:42 1.94879e-05
59 *125:87 *575:30 0.000798608
60 *125:87 *589:146 6.57425e-05
61 *1432:B1 *125:50 0.000494352
62 *1480:D *125:87 4.87669e-06
*RES
1 *1066:Y *125:12 17.8221 
2 *125:12 *125:16 6.7225 
3 *125:16 *1433:A2_N 13.8 
4 *125:16 *1236:A2 34.0857 
5 *125:12 *125:50 11.6254 
6 *125:50 *1436:A2 10.0143 
7 *125:50 *125:87 40.8957 
8 *125:87 *1397:B1 9.72857 
9 *125:87 *1400:A1 28.6214 
*END

*D_NET *126 0.0012726
*CONN
*I *1236:B1 I *D sky130_fd_sc_hd__a22o_2
*I *1237:A2 I *D sky130_fd_sc_hd__o221a_2
*I *1067:Y O *D sky130_fd_sc_hd__inv_2
*CAP
1 *1236:B1 9.39406e-05
2 *1237:A2 5.91868e-05
3 *1067:Y 0.000208504
4 *126:12 0.000361631
5 *1236:B1 *1237:A1 5.97719e-05
6 *1236:B1 *1237:B1 5.66157e-05
7 *1236:B1 *1522:A 0
8 *1237:A2 *1237:B1 0.000103045
9 *1237:A2 *1238:C1 7.77652e-05
10 *126:12 *1237:B1 0
11 *126:12 *1522:A 0.000125724
12 uio_oe[6] *126:12 7.77652e-05
13 uio_oe[7] *126:12 3.67142e-05
14 *1236:A2 *1236:B1 1.19402e-05
*RES
1 *1067:Y *126:12 22.9429 
2 *126:12 *1237:A2 11.0679 
3 *126:12 *1236:B1 20.55 
*END

*D_NET *127 0.00223176
*CONN
*I *1433:B1 I *D sky130_fd_sc_hd__a2bb2o_2
*I *1238:A2 I *D sky130_fd_sc_hd__a221o_2
*I *1237:B1 I *D sky130_fd_sc_hd__o221a_2
*I *1068:Y O *D sky130_fd_sc_hd__inv_2
*CAP
1 *1433:B1 0.000221235
2 *1238:A2 0
3 *1237:B1 0.000322234
4 *1068:Y 0
5 *127:10 0.00063392
6 *127:4 0.000532921
7 *1237:B1 *1237:A1 3.34295e-05
8 *1237:B1 *1238:A1 0
9 *1237:B1 *1238:C1 2.61099e-05
10 *1237:B1 *1239:C1 8.7636e-06
11 *1237:B1 *1522:A 0
12 *1237:B1 *462:10 0
13 *1237:B1 *586:47 0
14 *1433:B1 *1433:A1_N 9.69186e-05
15 *1433:B1 *1433:B2 5.33005e-05
16 *1433:B1 *1438:C1 3.10802e-05
17 *127:10 *1073:A 4.53699e-05
18 *127:10 *1238:B1 0
19 *127:10 *1239:C1 4.75359e-05
20 *127:10 *132:12 1.92789e-05
21 *1236:B1 *1237:B1 5.66157e-05
22 *1237:A2 *1237:B1 0.000103045
23 *126:12 *1237:B1 0
*RES
1 *1068:Y *127:4 9.3 
2 *127:4 *127:10 5.58482 
3 *127:10 *1237:B1 24.3446 
4 *127:10 *1238:A2 9.3 
5 *127:4 *1433:B1 13.5321 
*END

*D_NET *128 0.00100861
*CONN
*I *1238:B1 I *D sky130_fd_sc_hd__a221o_2
*I *1239:A2 I *D sky130_fd_sc_hd__o221a_2
*I *1069:Y O *D sky130_fd_sc_hd__inv_2
*CAP
1 *1238:B1 0.000170527
2 *1239:A2 0
3 *1069:Y 0.000115978
4 *128:6 0.000286505
5 *1238:B1 *1238:A1 2.89114e-05
6 *1238:B1 *1238:B2 0.000155094
7 *1238:B1 *1239:C1 5.17952e-05
8 *1238:B1 *1240:C1 5.52302e-05
9 *128:6 *1069:A 1.33343e-05
10 *128:6 *1239:B1 1.28809e-05
11 *128:6 *1239:C1 9.06254e-05
12 *128:6 *464:8 2.77289e-05
13 *127:10 *1238:B1 0
*RES
1 *1069:Y *128:6 11.8893 
2 *128:6 *1239:A2 9.3 
3 *128:6 *1238:B1 13.1393 
*END

*D_NET *129 0.00290553
*CONN
*I *1240:A2 I *D sky130_fd_sc_hd__a221o_2
*I *1132:A I *D sky130_fd_sc_hd__and3_2
*I *1239:B1 I *D sky130_fd_sc_hd__o221a_2
*I *1070:Y O *D sky130_fd_sc_hd__inv_2
*CAP
1 *1240:A2 8.35324e-05
2 *1132:A 0.000336466
3 *1239:B1 0.000327142
4 *1070:Y 0
5 *129:23 0.000641305
6 *129:4 0.000548448
7 *1132:A *1240:B1 6.73939e-05
8 *1132:A *1333:A2 5.28107e-05
9 *1132:A *1333:A3 4.38529e-06
10 *1132:A *130:32 8.65029e-05
11 *1132:A *173:10 3.69047e-06
12 *1132:A *466:25 0.000171884
13 *1239:B1 *1069:A 0
14 *1239:B1 *1070:A 1.92905e-05
15 *1239:B1 *1095:A 0.00012416
16 *1239:B1 *1210:A 1.03037e-05
17 *1239:B1 *1239:B2 1.75989e-05
18 *1239:B1 *1239:C1 1.28809e-05
19 *1239:B1 *1240:A1 4.80553e-05
20 *1239:B1 *1240:B1 0
21 *1239:B1 *588:22 0
22 *1240:A2 *1240:B1 0.000124644
23 *1240:A2 *1241:A1 2.54936e-05
24 *1240:A2 *1333:A2 0
25 *129:23 *1241:C1 0.000186662
26 *128:6 *1239:B1 1.28809e-05
*RES
1 *1070:Y *129:4 9.3 
2 *129:4 *1239:B1 23.858 
3 *129:4 *129:23 7.5 
4 *129:23 *1132:A 19.9429 
5 *129:23 *1240:A2 15.8938 
*END

*D_NET *130 0.00766243
*CONN
*I *1437:A2_N I *D sky130_fd_sc_hd__a2bb2o_2
*I *1436:B1 I *D sky130_fd_sc_hd__a22o_2
*I *1323:A I *D sky130_fd_sc_hd__or2_2
*I *1332:A1 I *D sky130_fd_sc_hd__o22a_2
*I *1132:B I *D sky130_fd_sc_hd__and3_2
*I *1240:B1 I *D sky130_fd_sc_hd__a221o_2
*I *1241:A2 I *D sky130_fd_sc_hd__o221a_2
*I *1071:Y O *D sky130_fd_sc_hd__inv_2
*CAP
1 *1437:A2_N 0.000121177
2 *1436:B1 5.02712e-05
3 *1323:A 2.30826e-05
4 *1332:A1 0
5 *1132:B 0
6 *1240:B1 0.000212233
7 *1241:A2 1.69531e-05
8 *1071:Y 0
9 *130:93 0.00038788
10 *130:80 0.000912678
11 *130:32 0.000562669
12 *130:22 0.00044626
13 *130:14 0.00055817
14 *130:4 0.00111856
15 *1240:B1 *1240:C1 2.83284e-06
16 *1240:B1 *1241:A1 0.000306073
17 *1241:A2 *1235:A 5.33005e-05
18 *1241:A2 *1241:B1 5.33005e-05
19 *1436:B1 *1436:A1 6.05161e-06
20 *1436:B1 *1442:A 5.33005e-05
21 *130:14 *1134:A2 1.69142e-05
22 *130:14 *1134:D1 1.94879e-05
23 *130:14 *1328:A2 0.00043941
24 *130:14 *1332:A2 0
25 *130:14 *179:18 2.84026e-05
26 *130:14 *575:26 2.70689e-05
27 *130:14 *593:34 7.69993e-05
28 *130:22 *1134:A2 7.57673e-05
29 *130:22 *1332:A2 3.39451e-05
30 *130:22 *173:10 8.98125e-05
31 *130:22 *575:26 0
32 *130:32 *1073:A 1.45616e-05
33 *130:32 *1241:A1 9.25014e-06
34 *130:32 *1333:A2 0.000101757
35 *130:32 *1333:B1 7.91118e-05
36 *130:32 *173:10 0.000112868
37 *130:80 *1128:B 8.6229e-06
38 *130:80 *1323:B 5.33005e-05
39 *130:80 *1327:A 3.48705e-05
40 *130:80 *1327:B 4.67986e-05
41 *130:80 *1328:A1 6.05161e-06
42 *130:80 *1328:A2 0.000286809
43 *130:80 *1328:A3 3.91528e-05
44 *130:80 *1439:A2 3.52408e-05
45 *130:80 *1439:B1 5.81135e-05
46 *130:80 *1442:C 5.33005e-05
47 *130:80 *133:20 3.53367e-05
48 *130:93 *1317:B 4.02462e-05
49 *130:93 *1328:A1 2.28598e-05
50 *130:93 *1328:B1 0
51 *130:93 *1436:A1 0
52 *130:93 *1599:clk 4.70821e-05
53 *130:93 *174:20 9.46332e-05
54 *130:93 *335:26 0.000142856
55 *130:93 *415:22 9.60337e-06
56 *1132:A *1240:B1 6.73939e-05
57 *1132:A *130:32 8.65029e-05
58 *1239:B1 *1240:B1 0
59 *1240:A2 *1240:B1 0.000124644
60 *1446:GATE *1437:A2_N 0.000176258
61 *1446:GATE *130:93 0.000146972
62 *125:50 *1437:A2_N 2.53045e-05
63 *125:50 *130:93 1.0334e-05
*RES
1 *1071:Y *130:4 9.3 
2 *130:4 *130:14 16.2321 
3 *130:14 *130:22 11.4821 
4 *130:22 *130:32 10.5 
5 *130:32 *1241:A2 14.3357 
6 *130:32 *1240:B1 27.1393 
7 *130:22 *1132:B 9.3 
8 *130:14 *1332:A1 9.3 
9 *130:4 *130:80 20.0179 
10 *130:80 *1323:A 9.72857 
11 *130:80 *130:93 9.94643 
12 *130:93 *1436:B1 14.7643 
13 *130:93 *1437:A2_N 16.3536 
*END

*D_NET *131 0.00588995
*CONN
*I *1235:B I *D sky130_fd_sc_hd__or2_2
*I *1333:A2 I *D sky130_fd_sc_hd__o31a_2
*I *1439:B1 I *D sky130_fd_sc_hd__a221o_2
*I *1327:B I *D sky130_fd_sc_hd__or3_2
*I *1072:Y O *D sky130_fd_sc_hd__inv_2
*CAP
1 *1235:B 0
2 *1333:A2 0.000352191
3 *1439:B1 0.000108987
4 *1327:B 0.000345054
5 *1072:Y 0.00101852
6 *131:39 0.000618308
7 *131:14 0.00120644
8 *1327:B *1128:B 0
9 *1327:B *1206:A 0
10 *1327:B *1224:A 1.02504e-05
11 *1327:B *1323:B 0
12 *1327:B *1328:A2 0
13 *1327:B *1328:A3 9.39125e-05
14 *1327:B *1328:B1 4.83724e-05
15 *1327:B *1439:A2 3.17148e-05
16 *1327:B *1442:C 7.64863e-05
17 *1333:A2 *1073:A 0.000339445
18 *1333:A2 *1241:A1 9.52387e-05
19 *1333:A2 *1333:A3 6.91613e-06
20 *1333:A2 *1333:B1 3.27359e-05
21 *1333:A2 *466:25 1.76649e-05
22 *1333:A2 *586:30 2.72011e-05
23 *1333:A2 *592:22 0.000161441
24 *1439:B1 *1128:B 3.69047e-06
25 *1439:B1 *1439:A2 3.28686e-05
26 *131:14 *1072:A 0.00020416
27 *131:14 *1128:A 1.67439e-05
28 *131:14 *1128:B 3.82242e-05
29 *131:14 *1328:B1 8.41555e-06
30 *131:14 *1438:A2 1.40034e-05
31 *131:14 *1439:A2 0.000275859
32 *131:14 *1442:C 0.000150632
33 *131:14 *592:88 1.83766e-05
34 *131:39 *1072:A 3.18676e-05
35 *131:39 *1242:A2 1.58163e-05
36 *131:39 *1242:B1 2.72887e-05
37 uio_oe[5] *131:14 0.000201646
38 *1132:A *1333:A2 5.28107e-05
39 *1240:A2 *1333:A2 0
40 *130:32 *1333:A2 0.000101757
41 *130:80 *1327:B 4.67986e-05
42 *130:80 *1439:B1 5.81135e-05
*RES
1 *1072:Y *131:14 26.05 
2 *131:14 *1327:B 19.9964 
3 *131:14 *1439:B1 15.5679 
4 *1072:Y *131:39 13.1214 
5 *131:39 *1333:A2 31.7761 
6 *131:39 *1235:B 9.3 
*END

*D_NET *132 0.00595607
*CONN
*I *1242:A1 I *D sky130_fd_sc_hd__a22o_2
*I *1241:B1 I *D sky130_fd_sc_hd__o221a_2
*I *1437:B1 I *D sky130_fd_sc_hd__a2bb2o_2
*I *1334:A1 I *D sky130_fd_sc_hd__o21ai_2
*I *1073:Y O *D sky130_fd_sc_hd__inv_2
*CAP
1 *1242:A1 0
2 *1241:B1 0.00025639
3 *1437:B1 0.000773789
4 *1334:A1 6.75867e-05
5 *1073:Y 0.000200054
6 *132:18 0.00135573
7 *132:12 0.000970804
8 *1241:B1 *1235:A 0.000111835
9 *1241:B1 *1241:C1 5.85194e-05
10 *1241:B1 *1242:B2 5.33005e-05
11 *1334:A1 *1334:A2 5.80706e-06
12 *1334:A1 *1334:B1 5.80706e-06
13 *1334:A1 *1439:B2 3.34672e-05
14 *1334:A1 *1439:C1 3.84385e-05
15 *1334:A1 *591:41 0
16 *1437:B1 *1128:A 5.52302e-05
17 *1437:B1 *1128:B 0.000265171
18 *1437:B1 *1432:A2_N 0.000163498
19 *1437:B1 *1437:A1_N 4.7488e-05
20 *1437:B1 *1437:B2 5.71472e-05
21 *1437:B1 *1438:A2 0.000195121
22 *1437:B1 *1438:B1 6.57499e-06
23 *1437:B1 *1438:C1 5.48248e-05
24 *1437:B1 *1439:B2 1.37644e-05
25 *1437:B1 *1439:C1 2.8266e-06
26 *1437:B1 *1443:A 0.000267094
27 *1437:B1 *133:20 2.13687e-05
28 *1437:B1 *473:28 3.91913e-05
29 *1437:B1 *476:10 4.35621e-05
30 *132:12 *1073:A 4.43475e-05
31 *132:12 *1235:A 3.85955e-05
32 *132:12 *1242:A2 0.000172233
33 *132:12 *1242:B1 0.000148027
34 *132:12 *586:30 8.03271e-05
35 *132:12 *592:50 7.80714e-06
36 *132:18 *1133:A 4.87854e-05
37 *132:18 *1133:B 5.33433e-05
38 *132:18 *1241:C1 3.92353e-05
39 *132:18 *1242:A2 8.7636e-06
40 uio_oe[5] *1437:B1 3.40312e-05
41 *1241:A2 *1241:B1 5.33005e-05
42 *1438:A1 *132:18 1.05901e-05
43 *125:16 *1437:B1 3.30061e-05
44 *127:10 *132:12 1.92789e-05
*RES
1 *1073:Y *132:12 23.5143 
2 *132:12 *132:18 10.8036 
3 *132:18 *1334:A1 15.4429 
4 *132:18 *1437:B1 28.8179 
5 *132:12 *1241:B1 14.0902 
6 *132:12 *1242:A1 9.3 
*END

*D_NET *133 0.0053081
*CONN
*I *1317:B I *D sky130_fd_sc_hd__or2_2
*I *1318:B I *D sky130_fd_sc_hd__nand2_2
*I *1438:B1 I *D sky130_fd_sc_hd__a221o_2
*I *1432:A1_N I *D sky130_fd_sc_hd__a2bb2o_2
*I *1074:Y O *D sky130_fd_sc_hd__inv_2
*CAP
1 *1317:B 0.000481132
2 *1318:B 3.96079e-05
3 *1438:B1 0.000108021
4 *1432:A1_N 8.99028e-06
5 *1074:Y 8.89948e-05
6 *133:20 0.000628593
7 *133:10 0.00055119
8 *133:8 0.000570127
9 *1317:B *1599:clk 0
10 *1317:B *174:20 0.000228558
11 *1317:B *179:18 0
12 *1317:B *335:26 9.32979e-05
13 *1317:B *419:10 5.45307e-05
14 *1317:B *593:59 4.60232e-06
15 *1318:B *584:74 7.17235e-05
16 *1318:B *593:59 0.000161395
17 *1432:A1_N *1432:A2_N 3.33238e-05
18 *1432:A1_N *1439:C1 1.3216e-05
19 *1438:B1 *1128:B 0
20 *1438:B1 *1432:A2_N 0.000160394
21 *1438:B1 *476:10 8.6229e-06
22 *1438:B1 *592:73 1.89507e-06
23 *133:8 *1231:B 0.000127446
24 *133:8 *179:18 0
25 *133:8 *593:59 5.25192e-06
26 *133:20 *1128:B 9.75658e-05
27 *133:20 *1231:A 0.000136958
28 *133:20 *1334:B1 0.000212494
29 *133:20 *1439:C1 0.000125724
30 *133:20 *179:18 0.000279
31 *133:20 *441:23 0.00052201
32 *133:20 *584:74 9.02133e-05
33 *133:20 *592:73 1.82398e-05
34 *133:20 *593:59 0.000140933
35 *1437:B1 *1438:B1 6.57499e-06
36 *1437:B1 *133:20 2.13687e-05
37 *1438:A1 *1438:B1 0.000140518
38 *130:80 *133:20 3.53367e-05
39 *130:93 *1317:B 4.02462e-05
*RES
1 *1074:Y *133:8 15.7464 
2 *133:8 *133:10 4.5 
3 *133:10 *133:20 18.4821 
4 *133:20 *1432:A1_N 14.1304 
5 *133:20 *1438:B1 16.3536 
6 *133:10 *1318:B 11.0857 
7 *133:8 *1317:B 22.05 
*END

*D_NET *134 0.0126227
*CONN
*I *1266:B1 I *D sky130_fd_sc_hd__a31o_2
*I *1290:B1 I *D sky130_fd_sc_hd__a31o_2
*I *1243:B I *D sky130_fd_sc_hd__nor2_2
*I *1292:B1 I *D sky130_fd_sc_hd__a21oi_2
*I *1281:B1 I *D sky130_fd_sc_hd__a21oi_2
*I *1075:Y O *D sky130_fd_sc_hd__inv_2
*CAP
1 *1266:B1 0.000529106
2 *1290:B1 0
3 *1243:B 0.000947961
4 *1292:B1 0.00035077
5 *1281:B1 0.00032171
6 *1075:Y 0.000657865
7 *134:52 0.00173013
8 *134:12 0.000917317
9 *134:8 0.00115577
10 *1243:B *1243:A 0.00046067
11 *1243:B *1250:B 0.000311608
12 *1243:B *1251:B 0
13 *1243:B *1253:A2 4.5795e-05
14 *1243:B *1254:B1 3.11908e-05
15 *1243:B *1288:B 1.21258e-05
16 *1243:B *1289:A2 0.000145497
17 *1243:B *1290:A2 5.52238e-05
18 *1243:B *1290:A3 0.000145497
19 *1243:B *1291:A 1.43434e-05
20 *1243:B *1439:A2 0
21 *1243:B *1537:A 0.000352389
22 *1243:B *1593:A 9.35794e-06
23 *1243:B *261:8 0
24 *1243:B *290:6 5.52302e-05
25 *1243:B *467:42 0.000174663
26 *1243:B *472:51 0.000212284
27 *1266:B1 *1257:B 0
28 *1266:B1 *1265:A2 2.71755e-05
29 *1266:B1 *1266:A1 1.18064e-05
30 *1266:B1 *1266:A3 0
31 *1266:B1 *1267:A 0
32 *1266:B1 *1275:B 0.000307566
33 *1266:B1 *272:10 0
34 *1266:B1 *284:24 0.000185643
35 *1266:B1 *470:38 0
36 *1266:B1 *475:32 9.56249e-05
37 *1266:B1 *526:139 4.44174e-05
38 *1266:B1 *579:40 0.00012401
39 *1281:B1 *1233:A 0.000244835
40 *1281:B1 *1234:B 5.43439e-05
41 *1281:B1 *1292:A1 3.69999e-05
42 *1292:B1 *1292:A1 0.000134539
43 *1292:B1 *1358:B 2.77209e-05
44 *1292:B1 *294:22 5.71472e-05
45 *1292:B1 *589:146 1.81412e-05
46 *134:8 *280:30 1.56e-05
47 *134:8 *531:40 0.000140933
48 *134:12 *602:CLK 3.14223e-05
49 *134:12 *1172:B 2.56601e-05
50 *134:12 *1428:A 1.24381e-05
51 *134:12 *1428:B 0.000108754
52 *134:12 *1441:B2 0.000115426
53 *134:12 *429:50 7.69776e-06
54 *134:12 *470:10 5.01448e-05
55 *134:12 *475:32 0
56 *134:12 *588:43 9.66219e-05
57 *134:12 *593:104 3.21796e-05
58 *134:52 *1172:B 1.08601e-05
59 *134:52 *290:6 0.00029926
60 *134:52 *419:25 4.19624e-06
61 *134:52 *470:10 1.39158e-05
62 *134:52 *473:28 9.77021e-06
63 *134:52 *586:47 0.00105277
64 *134:52 *588:26 6.20441e-06
65 *134:52 *588:43 0.000290886
66 uio_oe[3] *1243:B 0
67 uio_oe[4] *1243:B 0.000254745
68 uio_oe[5] *1243:B 0
69 *1250:A *1243:B 3.14163e-05
70 *1250:A *134:52 5.30637e-06
*RES
1 *1075:Y *134:8 15.5679 
2 *134:8 *134:12 10.3929 
3 *134:12 *1281:B1 14.3893 
4 *134:12 *1292:B1 23.3893 
5 *134:8 *134:52 16.8817 
6 *134:52 *1243:B 49.2464 
7 *134:52 *1290:B1 9.3 
8 *1075:Y *1266:B1 37.9929 
*END

*D_NET *135 0.0015223
*CONN
*I *1337:A1 I *D sky130_fd_sc_hd__o211ai_2
*I *1076:Y O *D sky130_fd_sc_hd__inv_2
*CAP
1 *1337:A1 0.000487469
2 *1076:Y 0.000487469
3 *1337:A1 *1076:A 0
4 *1337:A1 *1143:B 9.93871e-05
5 *1337:A1 *1335:C 1.5929e-05
6 *1337:A1 *1337:B1 0
7 *1337:A1 *1372:A 5.49544e-05
8 *1337:A1 *320:50 5.80704e-05
9 *1337:A1 *321:12 0.00016584
10 *1337:A1 *338:14 5.56296e-05
11 *1337:A1 *528:30 4.26014e-05
12 *1337:A1 *590:115 5.49544e-05
*RES
1 *1076:Y *1337:A1 36.4036 
*END

*D_NET *136 0.00151306
*CONN
*I *1354:A I *D sky130_fd_sc_hd__or3_2
*I *1393:B1 I *D sky130_fd_sc_hd__a21oi_2
*I *1394:A1 I *D sky130_fd_sc_hd__a31o_2
*I *1077:Y O *D sky130_fd_sc_hd__inv_2
*CAP
1 *1354:A 0.000230088
2 *1393:B1 0
3 *1394:A1 0.000133996
4 *1077:Y 0.000261417
5 *136:22 0.000357509
6 *1354:A *1354:B 0.000112438
7 *1354:A *1354:C 5.71472e-05
8 *1354:A *1396:B1 0.000101085
9 *1354:A *1598:addr[2] 0
10 *1354:A *355:18 1.02936e-05
11 *1354:A *364:18 6.05161e-06
12 *1394:A1 *1077:A 5.52238e-05
13 *1394:A1 *374:44 4.70078e-05
14 *136:22 *1354:B 4.49276e-05
15 *136:22 *1393:A1 0
16 *136:22 *1395:C 3.87299e-05
17 *136:22 *572:73 5.71472e-05
*RES
1 *1077:Y *1394:A1 20.3679 
2 *1077:Y *136:22 16.2821 
3 *136:22 *1393:B1 13.8 
4 *136:22 *1354:A 19.425 
*END

*D_NET *137 0.00240264
*CONN
*I *1354:B I *D sky130_fd_sc_hd__or3_2
*I *1379:A I *D sky130_fd_sc_hd__nand2_2
*I *1078:Y O *D sky130_fd_sc_hd__inv_2
*CAP
1 *1354:B 0.000374578
2 *1379:A 0.000248717
3 *1078:Y 0.00014467
4 *137:6 0.000767965
5 *1354:B *1077:A 4.78056e-05
6 *1354:B *1354:C 0
7 *1354:B *354:25 0
8 *1354:B *374:44 3.57844e-05
9 *1354:B *516:10 7.6644e-05
10 *1354:B *572:73 0.000174542
11 *1379:A *1379:B 3.69104e-05
12 *1379:A *1380:A2 2.47964e-05
13 *1379:A *1381:A2 7.2528e-05
14 *1379:A *1385:A1 0.000142152
15 *1379:A *378:10 5.68722e-05
16 *137:6 *1380:A2 4.1311e-05
17 *1354:A *1354:B 0.000112438
18 *136:22 *1354:B 4.49276e-05
*RES
1 *1078:Y *137:6 11.0679 
2 *137:6 *1379:A 13.9786 
3 *137:6 *1354:B 26.6214 
*END

*D_NET *138 0.00329962
*CONN
*I *1100:A I *D sky130_fd_sc_hd__xnor2_2
*I *1101:A1 I *D sky130_fd_sc_hd__a21oi_2
*I *1081:A I *D sky130_fd_sc_hd__nand2_2
*I *1079:X O *D sky130_fd_sc_hd__or3_2
*CAP
1 *1100:A 0
2 *1101:A1 0.000317695
3 *1081:A 1.73888e-05
4 *1079:X 7.06821e-05
5 *138:19 0.000498674
6 *138:8 0.00026905
7 *1081:A *1081:B 1.05731e-05
8 *1081:A *1174:A 5.04841e-06
9 *1101:A1 *1100:B 9.15276e-05
10 *1101:A1 *1101:A2 7.62949e-05
11 *1101:A1 *1169:A 3.76291e-05
12 *1101:A1 *1189:A 0
13 *1101:A1 *149:23 0.000179002
14 *1101:A1 *572:49 0.000448715
15 *138:8 *1081:B 0.000188586
16 *138:8 *1174:A 3.57315e-05
17 *138:8 *420:10 0.00010096
18 *138:8 *528:93 0.000188586
19 *138:19 *1097:A2 4.03934e-05
20 *138:19 *1174:A 0.000132888
21 *138:19 *420:10 0.000406153
22 *138:19 *420:37 8.57023e-05
23 *138:19 *447:18 9.83388e-05
*RES
1 *1079:X *138:8 12.7286 
2 *138:8 *1081:A 9.72857 
3 *138:8 *138:19 6.30357 
4 *138:19 *1101:A1 26.0143 
5 *138:19 *1100:A 9.3 
*END

*D_NET *139 0.000786026
*CONN
*I *1081:B I *D sky130_fd_sc_hd__nand2_2
*I *1080:Y O *D sky130_fd_sc_hd__o21ai_2
*CAP
1 *1081:B 0.000112581
2 *1080:Y 0.000112581
3 *1081:B *1079:A 4.43256e-05
4 *1081:B *1174:A 8.90314e-05
5 *1081:B *445:14 2.99132e-05
6 *1081:B *528:78 5.62995e-05
7 *1081:B *528:93 8.49876e-05
8 *1081:B *576:76 5.71472e-05
9 *1081:A *1081:B 1.05731e-05
10 *138:8 *1081:B 0.000188586
*RES
1 *1080:Y *1081:B 23.2607 
*END

*D_NET *140 0.00167364
*CONN
*I *1087:B I *D sky130_fd_sc_hd__nor2_2
*I *1085:A I *D sky130_fd_sc_hd__nor2_2
*I *1086:B I *D sky130_fd_sc_hd__and2_2
*I *1083:X O *D sky130_fd_sc_hd__and3_2
*CAP
1 *1087:B 0.000124689
2 *1085:A 5.81567e-05
3 *1086:B 0
4 *1083:X 0.000214725
5 *140:10 5.81567e-05
6 *140:8 0.000339415
7 *1085:A *1088:B 9.90431e-05
8 *1085:A *462:47 0.000230482
9 *1087:B *1062:A 0
10 *1087:B *1087:A 0.000214342
11 *1087:B *1088:B 7.83366e-05
12 *140:8 *1087:A 1.02504e-05
13 *140:8 *1091:B1 9.25014e-06
14 *140:8 *1209:B 0.000148189
15 *140:8 *147:26 0
16 *140:8 *419:89 4.01319e-05
17 *1468:D *140:8 4.84678e-05
*RES
1 *1083:X *140:8 18.175 
2 *140:8 *140:10 4.5 
3 *140:10 *1086:B 9.3 
4 *140:10 *1085:A 11.4786 
5 *140:8 *1087:B 17.1929 
*END

*D_NET *141 0.00167506
*CONN
*I *1085:B I *D sky130_fd_sc_hd__nor2_2
*I *1084:Y O *D sky130_fd_sc_hd__a21oi_2
*CAP
1 *1085:B 0.000362905
2 *1084:Y 0.000362905
3 *1085:B *1062:A 2.89016e-05
4 *1085:B *1083:C 0.00018077
5 *1085:B *1469:RESET_B 0.000290993
6 *1085:B *147:26 0.00027321
7 *1085:B *419:64 0
8 *1085:B *462:47 0.000175374
*RES
1 *1084:Y *1085:B 36.3143 
*END

*D_NET *142 0.00323692
*CONN
*I *1088:A I *D sky130_fd_sc_hd__nor2_2
*I *1091:A2 I *D sky130_fd_sc_hd__a21oi_2
*I *1089:B I *D sky130_fd_sc_hd__xor2_2
*I *1090:C I *D sky130_fd_sc_hd__and3_2
*I *1086:X O *D sky130_fd_sc_hd__and2_2
*CAP
1 *1088:A 0
2 *1091:A2 4.51404e-05
3 *1089:B 0
4 *1090:C 0.000160538
5 *1086:X 0.000395924
6 *142:16 0.000267129
7 *142:14 0.000401771
8 *142:10 0.000645964
9 *1090:C *1089:A 2.26973e-05
10 *1090:C *1090:B 1.40415e-05
11 *1090:C *1093:B 1.24368e-05
12 *1090:C *1210:B 0.000227014
13 *1090:C *144:29 0
14 *1091:A2 *1090:A 5.20751e-05
15 *142:10 *1088:B 0.000634164
16 *142:14 *1092:A 0
17 *142:14 *1094:A 0
18 *142:14 *1209:A 2.82057e-05
19 *142:14 *1210:B 0.00014209
20 *142:14 *144:29 0
21 *142:16 *1210:B 0.000187733
22 *142:16 *144:29 0
*RES
1 *1086:X *142:10 17.1571 
2 *142:10 *142:14 9.17857 
3 *142:14 *142:16 2.55357 
4 *142:16 *1090:C 17.6214 
5 *142:16 *1089:B 4.5 
6 *142:14 *1091:A2 14.7464 
7 *142:10 *1088:A 9.3 
*END

*D_NET *143 0.00156146
*CONN
*I *1088:B I *D sky130_fd_sc_hd__nor2_2
*I *1087:Y O *D sky130_fd_sc_hd__nor2_2
*CAP
1 *1088:B 0.000257212
2 *1087:Y 0.000257212
3 *1088:B *1062:A 0
4 *1088:B *462:47 2.28499e-05
5 *1085:A *1088:B 9.90431e-05
6 *1087:B *1088:B 7.83366e-05
7 *1468:D *1088:B 0.000212643
8 *142:10 *1088:B 0.000634164
*RES
1 *1087:Y *1088:B 35.85 
*END

*D_NET *144 0.00327742
*CONN
*I *1092:A I *D sky130_fd_sc_hd__nor2_2
*I *1094:B I *D sky130_fd_sc_hd__or2_2
*I *1093:B I *D sky130_fd_sc_hd__nand2_2
*I *1090:X O *D sky130_fd_sc_hd__and3_2
*CAP
1 *1092:A 0.000106453
2 *1094:B 5.74294e-05
3 *1093:B 0.000273109
4 *1090:X 0
5 *144:29 0.000724268
6 *144:4 0.000833494
7 *1092:A *1092:B 1.42165e-05
8 *1093:B *1090:B 3.83493e-06
9 *1093:B *1093:A 3.63587e-05
10 *1093:B *1096:A 0
11 *1093:B *1210:B 0.000317437
12 *1093:B *465:18 9.41642e-05
13 *1094:B *1094:A 5.65955e-05
14 *1094:B *1209:B 3.08664e-05
15 *144:29 *1090:B 8.47289e-06
16 *144:29 *1210:B 0
17 *144:29 *1470:CLK 3.42426e-05
18 *1090:C *1093:B 1.24368e-05
19 *1090:C *144:29 0
20 *1470:D *1092:A 4.30904e-05
21 *1470:D *144:29 0.000630945
22 *142:14 *1092:A 0
23 *142:14 *144:29 0
24 *142:16 *144:29 0
*RES
1 *1090:X *144:4 9.3 
2 *144:4 *1093:B 24.2821 
3 *144:4 *144:29 15.4286 
4 *144:29 *1094:B 14.8714 
5 *144:29 *1092:A 15.7464 
*END

*D_NET *145 0.000701411
*CONN
*I *1092:B I *D sky130_fd_sc_hd__nor2_2
*I *1091:Y O *D sky130_fd_sc_hd__a21oi_2
*CAP
1 *1092:B 0.000185868
2 *1091:Y 0.000185868
3 *1092:B *1468:CLK 2.84019e-05
4 *1092:A *1092:B 1.42165e-05
5 *1470:D *1092:B 0.000287057
*RES
1 *1091:Y *1092:B 31.975 
*END

*D_NET *146 0.0024236
*CONN
*I *1095:A I *D sky130_fd_sc_hd__and2_2
*I *1096:B I *D sky130_fd_sc_hd__xnor2_2
*I *1093:Y O *D sky130_fd_sc_hd__nand2_2
*CAP
1 *1095:A 0.000423951
2 *1096:B 0.000453758
3 *1093:Y 2.98072e-05
4 *1095:A *1070:A 4.46186e-06
5 *1095:A *1096:A 5.49489e-05
6 *1095:A *1210:A 0.000471944
7 *1095:A *1553:A 0.000170519
8 *1095:A *1568:A 9.90367e-05
9 *1095:A *465:18 0.000481532
10 *1096:B *1210:A 5.49544e-05
11 *1096:B *465:18 5.45307e-05
12 *1239:B1 *1095:A 0.00012416
*RES
1 *1093:Y *1096:B 19.5464 
2 *1096:B *1095:A 39.8321 
*END

*D_NET *147 0.0036223
*CONN
*I *1095:B I *D sky130_fd_sc_hd__and2_2
*I *1094:X O *D sky130_fd_sc_hd__or2_2
*CAP
1 *1095:B 0
2 *1094:X 0.00125454
3 *147:26 0.00125454
4 *147:26 *1069:A 4.0295e-05
5 *147:26 *1089:A 0.000162728
6 *147:26 *1094:A 1.6936e-05
7 *147:26 *1209:B 0.000132619
8 *147:26 *1469:RESET_B 6.07232e-05
9 *147:26 *1472:RESET_B 0
10 *147:26 *1553:A 0.000139907
11 *147:26 *419:72 3.11905e-05
12 *147:26 *465:48 6.2127e-05
13 *147:26 *530:71 0
14 *147:26 *530:73 0
15 *147:26 *588:22 4.90348e-05
16 *1085:B *147:26 0.00027321
17 *1471:D *147:26 0.00014445
18 *140:8 *147:26 0
*RES
1 *1094:X *147:26 40.7286 
2 *147:26 *1095:B 9.3 
*END

*D_NET *148 0.00461837
*CONN
*I *1101:B1 I *D sky130_fd_sc_hd__a21oi_2
*I *1099:A_N I *D sky130_fd_sc_hd__nand2b_2
*I *1169:B I *D sky130_fd_sc_hd__or4b_2
*I *1097:X O *D sky130_fd_sc_hd__o21a_2
*CAP
1 *1101:B1 0.000329811
2 *1099:A_N 7.14191e-05
3 *1169:B 0.000236041
4 *1097:X 0.000330173
5 *148:25 0.000499719
6 *148:12 0.000664704
7 *1099:A_N *1186:B 0.00022266
8 *1099:A_N *211:16 0.000140933
9 *1101:B1 *1101:A2 6.05161e-06
10 *1101:B1 *1175:B 4.18834e-05
11 *1101:B1 *1175:C 0.000136031
12 *1101:B1 *1184:B 4.66203e-05
13 *1101:B1 *1187:B1 0.000186276
14 *1101:B1 *1189:A 4.00349e-05
15 *1101:B1 *1485:CLK 9.66894e-06
16 *1101:B1 *211:16 8.11028e-06
17 *1101:B1 *418:88 9.41642e-05
18 *1101:B1 *447:10 0.000233521
19 *1101:B1 *448:10 0
20 *1101:B1 *572:49 1.03859e-05
21 *1101:B1 *588:84 0.000342076
22 *1169:B *1169:A 1.95735e-05
23 *1169:B *164:22 0.00022266
24 *1169:B *447:12 9.67517e-05
25 *1169:B *447:18 8.6229e-06
26 *148:12 *1169:D_N 3.08382e-06
27 *148:12 *149:8 6.23602e-05
28 *148:12 *164:22 4.61681e-05
29 *148:12 *528:93 0.000229456
30 *148:12 *528:104 0.000105733
31 *148:25 *211:16 3.32997e-05
32 *148:25 *447:10 8.6229e-06
33 *148:25 *447:12 0.00013176
34 *148:25 *572:49 0
*RES
1 *1097:X *148:12 18.9964 
2 *148:12 *1169:B 17.3179 
3 *148:12 *148:25 1.94643 
4 *148:25 *1099:A_N 15.9786 
5 *148:25 *1101:B1 27.0465 
*END

*D_NET *149 0.00216006
*CONN
*I *1101:A2 I *D sky130_fd_sc_hd__a21oi_2
*I *1099:B I *D sky130_fd_sc_hd__nand2b_2
*I *1169:D_N I *D sky130_fd_sc_hd__or4b_2
*I *1098:X O *D sky130_fd_sc_hd__or3_2
*CAP
1 *1101:A2 0.000126628
2 *1099:B 2.74618e-05
3 *1169:D_N 2.24275e-05
4 *1098:X 9.02027e-05
5 *149:23 0.000416349
6 *149:8 0.000374889
7 *1099:B *1186:B 5.33005e-05
8 *1099:B *151:16 2.04825e-05
9 *1099:B *157:49 1.58163e-05
10 *1101:A2 *1175:C 0.00018077
11 *1101:A2 *151:16 0.000157707
12 *1101:A2 *418:88 5.72869e-05
13 *149:8 *164:22 7.49387e-06
14 *149:23 *1100:B 0.000121871
15 *149:23 *1169:A 9.41642e-05
16 *149:23 *151:16 1.77923e-05
17 *149:23 *164:22 4.86237e-05
18 *1101:A1 *1101:A2 7.62949e-05
19 *1101:A1 *149:23 0.000179002
20 *1101:B1 *1101:A2 6.05161e-06
21 *148:12 *1169:D_N 3.08382e-06
22 *148:12 *149:8 6.23602e-05
*RES
1 *1098:X *149:8 10.675 
2 *149:8 *1169:D_N 9.72857 
3 *149:8 *149:23 9.61607 
4 *149:23 *1099:B 14.6125 
5 *149:23 *1101:A2 17.6661 
*END

*D_NET *150 0.000748688
*CONN
*I *1100:B I *D sky130_fd_sc_hd__xnor2_2
*I *1099:Y O *D sky130_fd_sc_hd__nand2b_2
*CAP
1 *1100:B 0.000196536
2 *1099:Y 0.000196536
3 *1100:B *151:16 0.000142218
4 *1101:A1 *1100:B 9.15276e-05
5 *149:23 *1100:B 0.000121871
*RES
1 *1099:Y *1100:B 31.975 
*END

*D_NET *151 0.00374701
*CONN
*I *1105:A I *D sky130_fd_sc_hd__xor2_2
*I *1116:A1 I *D sky130_fd_sc_hd__o31ai_2
*I *1109:A1 I *D sky130_fd_sc_hd__o21ai_2
*I *1101:Y O *D sky130_fd_sc_hd__a21oi_2
*CAP
1 *1105:A 0.000107068
2 *1116:A1 0
3 *1109:A1 0.000505834
4 *1101:Y 0.000290546
5 *151:16 0.000689312
6 *1105:A *1105:B 0.000225731
7 *1105:A *1110:A 1.66258e-05
8 *1109:A1 *1116:A2 3.08382e-06
9 *1109:A1 *1116:A3 5.65955e-05
10 *1109:A1 *1169:C 7.22626e-05
11 *1109:A1 *154:24 0.000571029
12 *1109:A1 *164:22 0.000231002
13 *151:16 *1169:C 0.000316985
14 *151:16 *1189:A 0.000193641
15 *151:16 *164:22 0.000129094
16 *1099:B *151:16 2.04825e-05
17 *1100:B *151:16 0.000142218
18 *1101:A2 *151:16 0.000157707
19 *149:23 *151:16 1.77923e-05
*RES
1 *1101:Y *151:16 26.6393 
2 *151:16 *1109:A1 19.175 
3 *151:16 *1116:A1 9.3 
4 *1109:A1 *1105:A 21.1893 
*END

*D_NET *152 0.00268882
*CONN
*I *1109:B1 I *D sky130_fd_sc_hd__o21ai_2
*I *1115:A1 I *D sky130_fd_sc_hd__a21bo_2
*I *1104:A I *D sky130_fd_sc_hd__nand2_2
*I *1102:Y O *D sky130_fd_sc_hd__o21ai_2
*CAP
1 *1109:B1 6.73899e-05
2 *1115:A1 0.000107533
3 *1104:A 0.000300456
4 *1102:Y 0
5 *152:6 0.000407989
6 *152:4 6.73899e-05
7 *1104:A *1102:B1 6.0163e-05
8 *1104:A *1104:B 0.000188586
9 *1104:A *1110:B 0
10 *1104:A *154:10 0
11 *1104:A *420:37 7.74578e-05
12 *1104:A *421:36 0.000319749
13 *1104:A *448:59 1.00375e-05
14 *1109:B1 *1102:B1 5.52302e-05
15 *1109:B1 *1105:B 0.000188586
16 *1109:B1 *1110:A 0.000350503
17 *1109:B1 *154:24 0.000203658
18 *1109:B1 *154:42 5.52302e-05
19 *1109:B1 *157:16 0.000142856
20 *1115:A1 *1107:C 2.39664e-05
21 *1115:A1 *157:12 2.05938e-05
22 *1115:A1 *448:59 4.14439e-05
*RES
1 *1102:Y *152:4 9.3 
2 *152:4 *152:6 4.5 
3 *152:6 *1104:A 20.6929 
4 *152:6 *1115:A1 15.7464 
5 *152:4 *1109:B1 13.9429 
*END

*D_NET *153 0.000389584
*CONN
*I *1104:B I *D sky130_fd_sc_hd__nand2_2
*I *1103:X O *D sky130_fd_sc_hd__or3_2
*CAP
1 *1104:B 0.000100499
2 *1103:X 0.000100499
3 *1104:A *1104:B 0.000188586
*RES
1 *1103:X *1104:B 21.1 
*END

*D_NET *154 0.00360269
*CONN
*I *1105:B I *D sky130_fd_sc_hd__xor2_2
*I *1109:A2 I *D sky130_fd_sc_hd__o21ai_2
*I *1116:A2 I *D sky130_fd_sc_hd__o31ai_2
*I *1169:C I *D sky130_fd_sc_hd__or4b_2
*I *1104:Y O *D sky130_fd_sc_hd__nand2_2
*CAP
1 *1105:B 5.21872e-05
2 *1109:A2 0
3 *1116:A2 1.64811e-05
4 *1169:C 0.000252782
5 *1104:Y 0.000133521
6 *154:42 7.10139e-05
7 *154:24 0.000497434
8 *154:10 0.000380519
9 *1105:B *1110:A 6.95776e-05
10 *1169:C *164:22 1.74352e-05
11 *154:10 *1110:A 0
12 *154:10 *1110:B 0
13 *154:24 *1102:B1 0.000139913
14 *154:24 *1116:A3 5.49544e-05
15 *154:24 *157:16 0.000280303
16 *1104:A *154:10 0
17 *1105:A *1105:B 0.000225731
18 *1109:A1 *1116:A2 3.08382e-06
19 *1109:A1 *1169:C 7.22626e-05
20 *1109:A1 *154:24 0.000571029
21 *1109:B1 *1105:B 0.000188586
22 *1109:B1 *154:24 0.000203658
23 *1109:B1 *154:42 5.52302e-05
24 *151:16 *1169:C 0.000316985
*RES
1 *1104:Y *154:10 20.2464 
2 *154:10 *154:24 9.17857 
3 *154:24 *1169:C 14.3714 
4 *154:24 *1116:A2 9.72857 
5 *154:10 *154:42 0.535714 
6 *154:42 *1109:A2 9.3 
7 *154:42 *1105:B 2.9375 
*END

*D_NET *155 0.00167163
*CONN
*I *1115:A2 I *D sky130_fd_sc_hd__a21bo_2
*I *1108:A I *D sky130_fd_sc_hd__nand2_2
*I *1106:Y O *D sky130_fd_sc_hd__o21ai_2
*CAP
1 *1115:A2 0
2 *1108:A 0.000185148
3 *1106:Y 7.24062e-05
4 *155:6 0.000257554
5 *1108:A *1108:B 5.33005e-05
6 *1108:A *1387:A3 6.43749e-05
7 *1108:A *1485:SET_B 0.000153563
8 *1108:A *157:12 0.000152349
9 *1108:A *449:10 5.44363e-05
10 *155:6 *1107:A 0.000401663
11 *155:6 *1107:C 8.74317e-05
12 *155:6 *1115:B1_N 0.000158535
13 *155:6 *579:87 3.08664e-05
*RES
1 *1106:Y *155:6 13.1214 
2 *155:6 *1108:A 23.5143 
3 *155:6 *1115:A2 9.3 
*END

*D_NET *156 0.00216045
*CONN
*I *1108:B I *D sky130_fd_sc_hd__nand2_2
*I *1115:B1_N I *D sky130_fd_sc_hd__a21bo_2
*I *1107:X O *D sky130_fd_sc_hd__or3_2
*CAP
1 *1108:B 0.000307034
2 *1115:B1_N 0.000138611
3 *1107:X 8.09858e-05
4 *156:8 0.00052663
5 *1108:B *1366:C_N 0
6 *1108:B *1370:A1 0
7 *1108:B *1370:B1 9.82841e-05
8 *1108:B *1386:A1 0
9 *1108:B *1386:A2 0
10 *1108:B *1387:A3 3.10681e-05
11 *1108:B *157:12 0.00040783
12 *1108:B *572:73 9.47028e-05
13 *1115:B1_N *1107:A 2.60984e-05
14 *1115:B1_N *1107:C 0.000237372
15 *1108:A *1108:B 5.33005e-05
16 *155:6 *1115:B1_N 0.000158535
*RES
1 *1107:X *156:8 10.675 
2 *156:8 *1115:B1_N 13.0054 
3 *156:8 *1108:B 26.0857 
*END

*D_NET *157 0.0112323
*CONN
*I *1110:A I *D sky130_fd_sc_hd__xnor2_2
*I *1314:A I *D sky130_fd_sc_hd__nor4_2
*I *1170:A I *D sky130_fd_sc_hd__nor2_2
*I *1116:A3 I *D sky130_fd_sc_hd__o31ai_2
*I *1108:Y O *D sky130_fd_sc_hd__nand2_2
*CAP
1 *1110:A 0.000594614
2 *1314:A 0
3 *1170:A 0.00012329
4 *1116:A3 5.35036e-05
5 *1108:Y 0.000263784
6 *157:49 0.0023686
7 *157:16 0.0027242
8 *157:12 0.00128378
9 *1110:A *1110:B 0
10 *1116:A3 *579:87 4.32309e-05
11 *1170:A *1123:B 2.94103e-05
12 *1170:A *169:16 2.89114e-05
13 *1170:A *211:26 0
14 *1170:A *211:48 1.02504e-05
15 *1170:A *528:70 0.000224592
16 *157:12 *1107:C 5.31122e-05
17 *157:12 *1370:A1 0
18 *157:12 *1387:A3 8.67371e-05
19 *157:12 *448:59 0
20 *157:16 *1102:B1 4.43256e-05
21 *157:49 *1185:A1 0.0001395
22 *157:49 *1185:B1 0.000449546
23 *157:49 *1186:B 0.000346053
24 *157:49 *1189:A 5.62995e-05
25 *157:49 *1189:B 3.18676e-05
26 *157:49 *1314:C 3.70379e-05
27 *157:49 *169:16 2.89016e-05
28 *157:49 *211:16 0.00047222
29 *157:49 *211:26 3.08664e-05
30 *157:49 *445:8 6.2589e-06
31 *157:49 *579:87 0.000121409
32 *1099:B *157:49 1.58163e-05
33 *1105:A *1110:A 1.66258e-05
34 *1105:B *1110:A 6.95776e-05
35 *1108:A *157:12 0.000152349
36 *1108:B *157:12 0.00040783
37 *1109:A1 *1116:A3 5.65955e-05
38 *1109:B1 *1110:A 0.000350503
39 *1109:B1 *157:16 0.000142856
40 *1115:A1 *157:12 2.05938e-05
41 *1486:D *157:49 1.20377e-05
42 *154:10 *1110:A 0
43 *154:24 *1116:A3 5.49544e-05
44 *154:24 *157:16 0.000280303
*RES
1 *1108:Y *157:12 25.0321 
2 *157:12 *157:16 10.375 
3 *157:16 *1116:A3 15.0679 
4 *157:16 *157:49 44.6607 
5 *157:49 *1170:A 21.6929 
6 *157:49 *1314:A 9.3 
7 *157:12 *1110:A 27.4786 
*END

*D_NET *158 0.000497386
*CONN
*I *1110:B I *D sky130_fd_sc_hd__xnor2_2
*I *1109:Y O *D sky130_fd_sc_hd__o21ai_2
*CAP
1 *1110:B 0.00020294
2 *1109:Y 0.00020294
3 *1110:B *421:36 9.15056e-05
4 *1104:A *1110:B 0
5 *1110:A *1110:B 0
6 *154:10 *1110:B 0
*RES
1 *1109:Y *1110:B 31.4214 
*END

*D_NET *159 0.00594026
*CONN
*I *1118:B1 I *D sky130_fd_sc_hd__a21oi_2
*I *1113:A I *D sky130_fd_sc_hd__nor2_2
*I *1311:A1 I *D sky130_fd_sc_hd__a21bo_2
*I *1158:C1 I *D sky130_fd_sc_hd__a221o_2
*I *1111:X O *D sky130_fd_sc_hd__o21a_2
*CAP
1 *1118:B1 0.000322855
2 *1113:A 0.000198468
3 *1311:A1 1.61164e-05
4 *1158:C1 0.000421497
5 *1111:X 0
6 *159:14 0.000551057
7 *159:8 0.000610768
8 *159:4 0.000621711
9 *1113:A *1312:A3 5.5969e-05
10 *1113:A *161:8 9.99853e-05
11 *1113:A *522:32 3.67252e-05
12 *1113:A *527:66 0
13 *1118:B1 *1111:B1 0.000120506
14 *1118:B1 *1114:A 1.51018e-05
15 *1118:B1 *161:59 0.000235618
16 *1118:B1 *169:16 0.00044468
17 *1118:B1 *450:50 0
18 *1118:B1 *527:66 6.46095e-05
19 *1118:B1 *580:94 0.000237939
20 *1158:C1 *1121:A_N 0
21 *1158:C1 *1137:B1 0
22 *1158:C1 *1138:C 0
23 *1158:C1 *1168:A 0
24 *1158:C1 *1311:A2 4.73286e-05
25 *1158:C1 *1312:A3 8.63081e-05
26 *1158:C1 *166:14 0
27 *1158:C1 *167:19 0.000231748
28 *1158:C1 *168:6 0.000105163
29 *1158:C1 *168:15 4.14279e-05
30 *1158:C1 *576:76 0.00101822
31 *1158:C1 *585:94 0
32 *1311:A1 *576:76 1.8461e-05
33 *159:8 *1311:A2 6.05161e-06
34 *159:8 *576:76 0.000227163
35 *159:14 *1311:A2 2.84026e-05
36 *159:14 *1312:A3 3.30077e-05
37 *159:14 *576:76 4.33741e-05
*RES
1 *1111:X *159:4 9.3 
2 *159:4 *159:8 8.73214 
3 *159:8 *159:14 6.375 
4 *159:14 *1158:C1 31.0321 
5 *159:14 *1311:A1 9.72857 
6 *159:8 *1113:A 17.8893 
7 *159:4 *1118:B1 26.9071 
*END

*D_NET *160 0.000336584
*CONN
*I *1113:B I *D sky130_fd_sc_hd__nor2_2
*I *1112:Y O *D sky130_fd_sc_hd__nor3_2
*CAP
1 *1113:B 8.76049e-05
2 *1112:Y 8.76049e-05
3 *1113:B *1111:A1 1.92789e-05
4 *1113:B *1112:A 5.7661e-06
5 *1113:B *161:8 5.7661e-06
6 *1113:B *161:59 9.80173e-05
7 *1113:B *522:32 1.32552e-05
8 *1113:B *527:66 1.92905e-05
*RES
1 *1112:Y *1113:B 20.8143 
*END

*D_NET *161 0.00685232
*CONN
*I *1114:A I *D sky130_fd_sc_hd__inv_2
*I *1118:A1 I *D sky130_fd_sc_hd__a21oi_2
*I *1312:A1 I *D sky130_fd_sc_hd__a41o_2
*I *1168:A I *D sky130_fd_sc_hd__and4_2
*I *1158:A1 I *D sky130_fd_sc_hd__a221o_2
*I *1113:Y O *D sky130_fd_sc_hd__nor2_2
*CAP
1 *1114:A 0.000293146
2 *1118:A1 0
3 *1312:A1 0
4 *1168:A 0.000352396
5 *1158:A1 0
6 *1113:Y 0
7 *161:59 0.000661606
8 *161:18 0.000774791
9 *161:8 0.000551487
10 *161:4 0.000497552
11 *1114:A *1111:A1 0.000175519
12 *1114:A *1111:A2 1.08175e-05
13 *1114:A *1118:A2 5.58875e-06
14 *1114:A *450:50 8.06816e-05
15 *1114:A *528:70 5.52302e-05
16 *1114:A *576:76 0.000227539
17 *1114:A *579:87 0.000141882
18 *1168:A *1168:B 0.000141015
19 *1168:A *1168:C 0.00014183
20 *1168:A *1306:A 7.15591e-05
21 *1168:A *1306:B 5.33334e-05
22 *1168:A *166:10 3.32091e-05
23 *1168:A *166:14 5.92328e-05
24 *1168:A *582:110 0.000615963
25 *1168:A *585:94 0
26 *1168:A *597:14 0
27 *161:8 *522:32 3.68943e-05
28 *161:18 *577:70 0.000914027
29 *161:18 *579:87 0.000297493
30 *161:59 *522:32 8.81471e-06
31 *161:59 *527:66 0.000102056
32 *161:59 *580:94 9.41642e-05
33 *1113:A *161:8 9.99853e-05
34 *1113:B *161:8 5.7661e-06
35 *1113:B *161:59 9.80173e-05
36 *1118:B1 *1114:A 1.51018e-05
37 *1118:B1 *161:59 0.000235618
38 *1158:C1 *1168:A 0
*RES
1 *1113:Y *161:4 9.3 
2 *161:4 *161:8 2.60714 
3 *161:8 *161:18 13.0851 
4 *161:18 *1158:A1 13.8 
5 *161:18 *1168:A 24.05 
6 *161:8 *1312:A1 9.3 
7 *161:4 *161:59 15.6339 
8 *161:59 *1118:A1 9.3 
9 *161:59 *1114:A 25.6125 
*END

*D_NET *162 0.00138423
*CONN
*I *1314:B I *D sky130_fd_sc_hd__nor4_2
*I *1117:A I *D sky130_fd_sc_hd__xnor2_2
*I *1114:Y O *D sky130_fd_sc_hd__inv_2
*CAP
1 *1314:B 0.000102624
2 *1117:A 0.000186373
3 *1114:Y 0.000172817
4 *162:10 0.000461814
5 *1117:A *1598:addr[11] 0.000129595
6 *1117:A *522:18 7.48091e-05
7 *1314:B *1123:B 0.000157522
8 *1314:B *211:26 4.1331e-06
9 *1314:B *522:18 1.33434e-05
10 *162:10 *1123:B 9.54798e-06
11 *162:10 *522:18 1.53528e-05
12 *162:10 *528:70 0
13 *162:10 *576:76 5.62995e-05
*RES
1 *1114:Y *162:10 16.6929 
2 *162:10 *1117:A 18.0321 
3 *162:10 *1314:B 16.05 
*END

*D_NET *163 0.000337557
*CONN
*I *1116:B1 I *D sky130_fd_sc_hd__o31ai_2
*I *1115:X O *D sky130_fd_sc_hd__a21bo_2
*CAP
1 *1116:B1 0.000127449
2 *1115:X 0.000127449
3 *1116:B1 *1107:C 5.52302e-05
4 *1116:B1 *448:59 2.74273e-05
*RES
1 *1115:X *1116:B1 29.475 
*END

*D_NET *164 0.0050474
*CONN
*I *1117:B I *D sky130_fd_sc_hd__xnor2_2
*I *1595:A I *D sky130_fd_sc_hd__clkbuf_2
*I *1116:Y O *D sky130_fd_sc_hd__o31ai_2
*CAP
1 *1117:B 0
2 *1595:A 0.000206985
3 *1116:Y 0.00146538
4 *164:22 0.00167237
5 *1595:A *1183:B 0
6 *1595:A *1598:addr[11] 3.67257e-05
7 *1595:A *522:18 0
8 *164:22 *1098:B 9.58126e-05
9 *164:22 *1098:C 0.000126944
10 *164:22 *1169:A 4.58194e-05
11 *164:22 *1183:A 1.02936e-05
12 *164:22 *1183:B 9.0343e-05
13 *164:22 *1552:A 0.000273866
14 *164:22 *1598:addr[11] 3.8849e-05
15 *164:22 *424:14 0.000228558
16 *164:22 *528:93 3.65178e-05
17 *164:22 *528:104 1.64583e-05
18 *1109:A1 *164:22 0.000231002
19 *1169:B *164:22 0.00022266
20 *1169:C *164:22 1.74352e-05
21 *1483:D *1595:A 0
22 *148:12 *164:22 4.61681e-05
23 *149:8 *164:22 7.49387e-06
24 *149:23 *164:22 4.86237e-05
25 *151:16 *164:22 0.000129094
*RES
1 *1116:Y *164:22 42.675 
2 *164:22 *1595:A 21.8 
3 *164:22 *1117:B 9.3 
*END

*D_NET *165 0.000438259
*CONN
*I *1123:A I *D sky130_fd_sc_hd__xnor2_2
*I *1118:Y O *D sky130_fd_sc_hd__a21oi_2
*CAP
1 *1123:A 8.63833e-05
2 *1118:Y 8.63833e-05
3 *1123:A *450:50 0.000119778
4 *1123:A *522:18 2.59355e-05
5 *1123:A *528:70 0.000119778
*RES
1 *1118:Y *1123:A 29.7786 
*END

*D_NET *166 0.00406252
*CONN
*I *1306:A I *D sky130_fd_sc_hd__or2_2
*I *1157:B I *D sky130_fd_sc_hd__or2_2
*I *1158:B1 I *D sky130_fd_sc_hd__a221o_2
*I *1121:B I *D sky130_fd_sc_hd__nand2b_2
*I *1119:X O *D sky130_fd_sc_hd__or2_2
*CAP
1 *1306:A 0.000133348
2 *1157:B 0.000520729
3 *1158:B1 6.69747e-05
4 *1121:B 8.86348e-05
5 *1119:X 6.94881e-05
6 *166:14 0.000276936
7 *166:10 0.000678271
8 *166:8 0.00023905
9 *1121:B *1120:B 4.28249e-05
10 *1121:B *1121:A_N 5.41851e-05
11 *1121:B *167:12 0
12 *1121:B *169:8 0
13 *1157:B *1157:A 5.52238e-05
14 *1157:B *1159:A 0.000136951
15 *1157:B *1162:A3 7.0397e-05
16 *1157:B *580:88 0.000139832
17 *1158:B1 *1120:B 1.90936e-05
18 *1158:B1 *1120:C_N 0.000140933
19 *1158:B1 *1158:A2 7.41811e-05
20 *1158:B1 *1158:B2 1.85443e-05
21 *1158:B1 *200:12 4.35881e-05
22 *1158:B1 *581:116 6.02722e-05
23 *1306:A *1168:B 9.60875e-05
24 *1306:A *1306:B 8.47881e-05
25 *1306:A *307:6 6.05161e-06
26 *1306:A *451:60 0.000207722
27 *1306:A *582:110 7.48301e-06
28 *1306:A *597:14 0
29 *166:8 *1307:C 0.000139913
30 *166:8 *580:88 0.000221641
31 *166:10 *1120:B 5.54204e-05
32 *166:10 *451:60 2.26824e-05
33 *166:14 *1120:B 0.000127274
34 *1158:C1 *166:14 0
35 *1168:A *1306:A 7.15591e-05
36 *1168:A *166:10 3.32091e-05
37 *1168:A *166:14 5.92328e-05
*RES
1 *1119:X *166:8 15.9786 
2 *166:8 *166:10 1.03571 
3 *166:10 *166:14 2.63393 
4 *166:14 *1121:B 15.8982 
5 *166:14 *1158:B1 16.2732 
6 *166:10 *1157:B 21.0545 
7 *166:8 *1306:A 17.6036 
*END

*D_NET *167 0.00209138
*CONN
*I *1312:A3 I *D sky130_fd_sc_hd__a41o_2
*I *1311:B1_N I *D sky130_fd_sc_hd__a21bo_2
*I *1122:A I *D sky130_fd_sc_hd__nand2_2
*I *1120:X O *D sky130_fd_sc_hd__or3b_2
*CAP
1 *1312:A3 0.000201848
2 *1311:B1_N 0
3 *1122:A 0
4 *1120:X 0.000238111
5 *167:19 0.000232435
6 *167:12 0.000268698
7 *1312:A3 *1311:A2 9.78671e-05
8 *1312:A3 *1312:A4 0
9 *1312:A3 *1312:B1 0
10 *167:12 *1120:A 7.47122e-05
11 *167:12 *1121:A_N 0
12 *167:12 *1158:A2 7.32173e-05
13 *167:12 *1312:A4 6.75007e-05
14 *167:12 *1312:B1 1.11654e-05
15 *167:12 *169:8 0.000188964
16 *167:19 *1311:A2 0.000130788
17 *167:19 *168:15 9.90431e-05
18 *1113:A *1312:A3 5.5969e-05
19 *1121:B *167:12 0
20 *1158:C1 *1312:A3 8.63081e-05
21 *1158:C1 *167:19 0.000231748
22 *159:14 *1312:A3 3.30077e-05
*RES
1 *1120:X *167:12 23.1214 
2 *167:12 *1122:A 9.3 
3 *167:12 *167:19 2.18304 
4 *167:19 *1311:B1_N 9.3 
5 *167:19 *1312:A3 22.4562 
*END

*D_NET *168 0.00190857
*CONN
*I *1311:A2 I *D sky130_fd_sc_hd__a21bo_2
*I *1312:A4 I *D sky130_fd_sc_hd__a41o_2
*I *1122:B I *D sky130_fd_sc_hd__nand2_2
*I *1121:Y O *D sky130_fd_sc_hd__nand2b_2
*CAP
1 *1311:A2 0.000148488
2 *1312:A4 0.000233128
3 *1122:B 2.23854e-05
4 *1121:Y 7.06478e-05
5 *168:15 0.000457823
6 *168:6 0.000169241
7 *1312:A4 *1158:A2 1.47464e-05
8 *1312:A4 *1312:B1 0.000132032
9 *1312:A4 *1313:B2 3.65086e-05
10 *1158:C1 *1311:A2 4.73286e-05
11 *1158:C1 *168:6 0.000105163
12 *1158:C1 *168:15 4.14279e-05
13 *1312:A3 *1311:A2 9.78671e-05
14 *1312:A3 *1312:A4 0
15 *159:8 *1311:A2 6.05161e-06
16 *159:14 *1311:A2 2.84026e-05
17 *167:12 *1312:A4 6.75007e-05
18 *167:19 *1311:A2 0.000130788
19 *167:19 *168:15 9.90431e-05
*RES
1 *1121:Y *168:6 11.0679 
2 *168:6 *1122:B 9.72857 
3 *168:6 *168:15 1.76786 
4 *168:15 *1312:A4 22.4429 
5 *168:15 *1311:A2 12.7107 
*END

*D_NET *169 0.00667644
*CONN
*I *1168:B I *D sky130_fd_sc_hd__and4_2
*I *1314:C I *D sky130_fd_sc_hd__nor4_2
*I *1123:B I *D sky130_fd_sc_hd__xnor2_2
*I *1122:Y O *D sky130_fd_sc_hd__nand2_2
*CAP
1 *1168:B 0.000705636
2 *1314:C 0.000114439
3 *1123:B 0.00014518
4 *1122:Y 0.000233129
5 *169:16 0.000900583
6 *169:8 0.00157973
7 *1123:B *211:26 0
8 *1123:B *528:70 4.92165e-05
9 *1168:B *1162:A1 5.71472e-05
10 *1168:B *1168:C 3.18676e-05
11 *1168:B *1306:B 7.41433e-05
12 *1168:B *1307:A 1.18451e-05
13 *1168:B *1307:B 7.43412e-05
14 *1168:B *1307:C 1.58163e-05
15 *1168:B *1308:A1 5.33334e-05
16 *1168:B *1308:B1 2.95726e-05
17 *1168:B *1313:C1 5.54183e-05
18 *1168:B *298:8 2.47697e-05
19 *1168:B *307:6 1.21258e-05
20 *1168:B *527:94 9.00741e-05
21 *1168:B *582:110 2.88018e-06
22 *169:8 *1120:A 3.25078e-05
23 *169:8 *1120:B 0
24 *169:8 *1307:A 1.27126e-05
25 *169:8 *527:94 2.77476e-05
26 *169:16 *1305:A 5.52238e-05
27 *169:16 *1307:C 9.71197e-05
28 *169:16 *579:87 0.000132088
29 *169:16 *580:88 0.000784209
30 *169:16 *580:94 0.000111508
31 *1118:B1 *169:16 0.00044468
32 *1121:B *169:8 0
33 *1168:A *1168:B 0.000141015
34 *1170:A *1123:B 2.94103e-05
35 *1170:A *169:16 2.89114e-05
36 *1306:A *1168:B 9.60875e-05
37 *1314:B *1123:B 0.000157522
38 *157:49 *1314:C 3.70379e-05
39 *157:49 *169:16 2.89016e-05
40 *162:10 *1123:B 9.54798e-06
41 *167:12 *169:8 0.000188964
*RES
1 *1122:Y *169:8 18.175 
2 *169:8 *169:16 19.1429 
3 *169:16 *1123:B 21.1571 
4 *169:16 *1314:C 11.3893 
5 *169:8 *1168:B 26.2643 
*END

*D_NET *170 0.000842337
*CONN
*I *1125:B I *D sky130_fd_sc_hd__or4bb_2
*I *1124:Y O *D sky130_fd_sc_hd__nand2_2
*CAP
1 *1125:B 0.000361893
2 *1124:Y 0.000361893
3 *1125:B *1138:B 0
4 *1125:B *1450:RESET_B 5.7537e-05
5 *1125:B *1543:A 5.52302e-05
6 *1125:B *577:36 5.7836e-06
*RES
1 *1124:Y *1125:B 33.8857 
*END

*D_NET *171 0.00192152
*CONN
*I *1130:B I *D sky130_fd_sc_hd__nand2b_2
*I *1138:A I *D sky130_fd_sc_hd__nor3_2
*I *1125:X O *D sky130_fd_sc_hd__or4bb_2
*CAP
1 *1130:B 0.00038583
2 *1138:A 8.69488e-05
3 *1125:X 0
4 *171:4 0.000472779
5 *1130:B *1151:A 0.000204367
6 *1130:B *1151:B 1.20379e-05
7 *1130:B *1156:B 0
8 *1130:B *1162:A3 7.25659e-05
9 *1130:B *1360:B 0.000351392
10 *1130:B *579:56 0
11 *1130:B *580:88 0
12 *1130:B *581:100 4.84319e-05
13 *1130:B *583:41 0.00013663
14 *1138:A *581:108 0.000150539
*RES
1 *1125:X *171:4 9.3 
2 *171:4 *1138:A 11.3893 
3 *171:4 *1130:B 27.5321 
*END

*D_NET *172 0.000504898
*CONN
*I *1129:B1 I *D sky130_fd_sc_hd__a32o_2
*I *1126:X O *D sky130_fd_sc_hd__a211o_2
*CAP
1 *1129:B1 4.60998e-05
2 *1126:X 4.60998e-05
3 *1129:B1 *1129:A2 0.000107228
4 *1129:B1 *1130:A_N 0.000236174
5 *1129:B1 *179:18 6.92966e-05
*RES
1 *1126:X *1129:B1 20.8679 
*END

*D_NET *173 0.00381216
*CONN
*I *1128:B I *D sky130_fd_sc_hd__or2_2
*I *1332:B2 I *D sky130_fd_sc_hd__o22a_2
*I *1325:A I *D sky130_fd_sc_hd__or2_2
*I *1127:X O *D sky130_fd_sc_hd__or2_2
*CAP
1 *1128:B 0.000618393
2 *1332:B2 0
3 *1325:A 0.000217075
4 *1127:X 0
5 *173:10 0.000617182
6 *173:4 0.0010185
7 *1128:B *1127:B 1.58163e-05
8 *1128:B *1439:B2 0.00012117
9 *1128:B *592:73 4.26759e-05
10 *1325:A *1203:A 3.69047e-06
11 *1325:A *1332:A2 6.95546e-05
12 *1325:A *590:30 0
13 *173:10 *1127:B 6.09773e-05
14 *173:10 *1332:A2 1.78536e-05
15 *173:10 *1333:B1 2.05715e-05
16 *173:10 *590:30 0
17 *173:10 *592:50 7.50473e-05
18 uio_oe[5] *1128:B 8.28647e-05
19 *1132:A *173:10 3.69047e-06
20 *1327:B *1128:B 0
21 *1437:B1 *1128:B 0.000265171
22 *1438:A1 *1128:B 3.72152e-05
23 *1438:B1 *1128:B 0
24 *1439:A1 *1128:B 0.000173934
25 *1439:B1 *1128:B 3.69047e-06
26 *130:22 *173:10 8.98125e-05
27 *130:32 *173:10 0.000112868
28 *130:80 *1128:B 8.6229e-06
29 *131:14 *1128:B 3.82242e-05
30 *133:20 *1128:B 9.75658e-05
*RES
1 *1127:X *173:4 9.3 
2 *173:4 *173:10 11.8036 
3 *173:10 *1325:A 17.1036 
4 *173:10 *1332:B2 13.8 
5 *173:4 *1128:B 31.1214 
*END

*D_NET *174 0.00399691
*CONN
*I *1319:S I *D sky130_fd_sc_hd__mux2_1
*I *1129:A3 I *D sky130_fd_sc_hd__a32o_2
*I *1128:X O *D sky130_fd_sc_hd__or2_2
*CAP
1 *1319:S 0.000259708
2 *1129:A3 0.000301276
3 *1128:X 0.000583147
4 *174:20 0.00114413
5 *1129:A3 *1129:A1 0.000123352
6 *1129:A3 *1129:B2 1.30583e-05
7 *1129:A3 *1446:CLK 3.04117e-05
8 *1129:A3 *179:18 6.78311e-05
9 *1129:A3 *320:24 0
10 *1129:A3 *593:83 6.31804e-05
11 *1319:S *1234:B 0
12 *1319:S *1319:A0 5.28707e-05
13 *1319:S *1446:CLK 0.000297004
14 *174:20 *1128:A 2.74981e-06
15 *174:20 *1328:B1 4.61387e-05
16 *174:20 *1436:B2 2.45502e-05
17 *174:20 *1442:B 3.07101e-05
18 *174:20 *1443:B 0.000118618
19 *174:20 *1446:CLK 0.000201025
20 *174:20 *1599:clk 4.85631e-05
21 *174:20 *179:18 9.25014e-06
22 *174:20 *335:26 0.000113286
23 *174:20 *415:22 2.05484e-05
24 *174:20 *593:59 1.32056e-05
25 *174:20 *593:68 1.10868e-05
26 *1317:B *174:20 0.000228558
27 *1446:GATE *174:20 9.80173e-05
28 *130:93 *174:20 9.46332e-05
*RES
1 *1128:X *174:20 39.6214 
2 *174:20 *1129:A3 23.1214 
3 *174:20 *1319:S 22.0321 
*END

*D_NET *175 0.00466709
*CONN
*I *1130:A_N I *D sky130_fd_sc_hd__nand2b_2
*I *1129:X O *D sky130_fd_sc_hd__a32o_2
*CAP
1 *1130:A_N 0.00159716
2 *1129:X 0.00159716
3 *1130:A_N *1126:A1 4.82947e-05
4 *1130:A_N *1126:B1 5.33005e-05
5 *1130:A_N *1129:A2 0.000105747
6 *1130:A_N *1129:B2 5.33005e-05
7 *1130:A_N *1173:A 1.82657e-05
8 *1130:A_N *1358:A 0.000114587
9 *1130:A_N *1358:B 1.39841e-05
10 *1130:A_N *1360:D 0.000225609
11 *1130:A_N *179:18 4.90948e-05
12 *1130:A_N *179:29 0.000111417
13 *1130:A_N *209:16 2.90075e-05
14 *1130:A_N *427:10 1.79279e-05
15 *1130:A_N *457:42 4.45768e-06
16 *1130:A_N *584:82 0.000313192
17 *602:GATE *1130:A_N 7.84126e-05
18 *1129:B1 *1130:A_N 0.000236174
*RES
1 *1129:X *1130:A_N 42.6 
*END

*D_NET *176 0.0110791
*CONN
*I *1131:A I *D sky130_fd_sc_hd__inv_2
*I *1296:A I *D sky130_fd_sc_hd__or2_2
*I *1295:A I *D sky130_fd_sc_hd__nor2_2
*I *1130:Y O *D sky130_fd_sc_hd__nand2b_2
*CAP
1 *1131:A 0.000101061
2 *1296:A 0.000516552
3 *1295:A 0
4 *1130:Y 0.00196754
5 *176:42 0.000919813
6 *176:34 0.0011366
7 *176:24 0.00259981
8 *1131:A *1300:A1 9.65182e-05
9 *1131:A *1406:A 3.23658e-05
10 *1131:A *1406:B 4.81867e-05
11 *1131:A *527:44 0
12 *1296:A *1295:B 3.99189e-05
13 *1296:A *1585:A 1.85443e-05
14 *1296:A *387:12 0
15 *1296:A *417:53 9.60939e-05
16 *1296:A *417:64 0.000349111
17 *1296:A *494:14 3.61629e-06
18 *1296:A *535:39 9.65182e-05
19 *176:24 *1151:A 8.85631e-05
20 *176:24 *1153:B 7.55747e-05
21 *176:24 *1163:A 2.65105e-05
22 *176:24 *1163:B 4.01768e-05
23 *176:24 *1171:C 2.62124e-05
24 *176:24 *1304:B 0
25 *176:24 *1309:A2 3.37625e-05
26 *176:24 *1309:B1 0.000162726
27 *176:24 *1356:S 2.55587e-05
28 *176:24 *193:8 9.22103e-06
29 *176:24 *206:12 8.46044e-06
30 *176:24 *211:48 0
31 *176:24 *320:50 0.000148105
32 *176:24 *451:48 0.000414424
33 *176:24 *527:90 1.21258e-05
34 *176:34 *1299:A_N 5.59013e-05
35 *176:34 *1299:B 6.81083e-05
36 *176:34 *1315:B2 0
37 *176:34 *1406:A 3.10819e-05
38 *176:34 *187:12 2.56694e-05
39 *176:34 *299:17 0.000143188
40 *176:34 *446:31 4.43836e-05
41 *176:34 *524:10 0.000125731
42 *176:34 *527:50 0
43 *176:34 *527:60 4.13805e-05
44 *176:34 *528:70 1.09026e-05
45 *176:34 *590:115 0.000390994
46 *176:42 *1145:B 0.000138253
47 *176:42 *1295:B 0.000139913
48 *176:42 *1406:A 0.000479521
49 *176:42 *1585:A 0.00014183
50 *176:42 *294:32 6.33415e-05
51 *1509:D *176:42 8.52674e-05
*RES
1 *1130:Y *176:24 49.0143 
2 *176:24 *176:34 20.0536 
3 *176:34 *176:42 15.0357 
4 *176:42 *1295:A 9.3 
5 *176:42 *1296:A 25.8357 
6 *176:34 *1131:A 15.7464 
*END

*D_NET *177 0.000899472
*CONN
*I *1134:A2 I *D sky130_fd_sc_hd__o2111a_2
*I *1132:X O *D sky130_fd_sc_hd__and3_2
*CAP
1 *1134:A2 0.000268584
2 *1132:X 0.000268584
3 *1134:A2 *179:18 0.000269622
4 *1134:A2 *575:26 0
5 *130:14 *1134:A2 1.69142e-05
6 *130:22 *1134:A2 7.57673e-05
*RES
1 *1132:X *1134:A2 31.6357 
*END

*D_NET *178 0.0105935
*CONN
*I *1359:B1 I *D sky130_fd_sc_hd__a21oi_2
*I *1134:B1 I *D sky130_fd_sc_hd__o2111a_2
*I *1241:C1 I *D sky130_fd_sc_hd__o221a_2
*I *1133:Y O *D sky130_fd_sc_hd__nand2_2
*CAP
1 *1359:B1 0.00198101
2 *1134:B1 4.12692e-05
3 *1241:C1 0.000421434
4 *1133:Y 0.000574746
5 *178:22 0.00217559
6 *1134:B1 *179:18 9.71197e-05
7 *1134:B1 *590:42 9.87983e-06
8 *1134:B1 *591:30 8.6229e-06
9 *1134:B1 *591:41 1.04707e-05
10 *1134:B1 *593:59 3.32631e-05
11 *1241:C1 *1070:A 0
12 *1241:C1 *1133:B 5.33433e-05
13 *1241:C1 *1235:A 0.000301438
14 *1241:C1 *1242:A2 7.13226e-06
15 *1359:B1 *1153:B 0.000224583
16 *1359:B1 *1172:C 1.21258e-05
17 *1359:B1 *1230:B 1.90936e-05
18 *1359:B1 *1292:A1 1.01912e-05
19 *1359:B1 *1335:C 0.000233486
20 *1359:B1 *1360:A_N 0.000886197
21 *1359:B1 *1360:C 2.8266e-06
22 *1359:B1 *1360:D 0
23 *1359:B1 *1602:B 0.00011033
24 *1359:B1 *415:22 0
25 *1359:B1 *457:42 0
26 *1359:B1 *575:30 0
27 *1359:B1 *579:56 0.000190334
28 *1359:B1 *584:74 0.00106895
29 *1359:B1 *584:103 0.000169794
30 *1359:B1 *593:59 0.00115228
31 *1359:B1 *593:104 4.29092e-05
32 *178:22 *590:42 3.62191e-05
33 *178:22 *590:60 4.24169e-05
34 *178:22 *590:83 7.53108e-05
35 *178:22 *591:41 0.000201453
36 *178:22 *591:52 0.000115277
37 *1241:B1 *1241:C1 5.85194e-05
38 *129:23 *1241:C1 0.000186662
39 *132:18 *1241:C1 3.92353e-05
*RES
1 *1133:Y *1241:C1 26.85 
2 *1133:Y *178:22 18.0232 
3 *178:22 *1134:B1 15.0232 
4 *178:22 *1359:B1 46.3915 
*END

*D_NET *179 0.00764969
*CONN
*I *1292:A1 I *D sky130_fd_sc_hd__a21oi_2
*I *1173:B I *D sky130_fd_sc_hd__nor3_2
*I *1135:A I *D sky130_fd_sc_hd__inv_2
*I *1134:X O *D sky130_fd_sc_hd__o2111a_2
*CAP
1 *1292:A1 0.000434749
2 *1173:B 7.66878e-05
3 *1135:A 4.0257e-05
4 *1134:X 0.00164864
5 *179:29 0.000700202
6 *179:18 0.00187766
7 *1135:A *1126:A1 0
8 *1173:B *1230:B 3.2476e-05
9 *1173:B *1233:B 6.20091e-06
10 *1173:B *211:48 3.71343e-05
11 *1173:B *427:10 0.000148911
12 *1292:A1 *1230:B 0.000115315
13 *1292:A1 *1233:A 3.46775e-05
14 *1292:A1 *1233:B 0.000126559
15 *179:18 *1126:A1 9.83442e-05
16 *179:18 *1126:B1 2.84026e-05
17 *179:18 *1129:A2 0.000225988
18 *179:18 *1129:B2 5.15925e-05
19 *179:18 *1134:A1 1.59901e-05
20 *179:18 *1231:B 0
21 *179:18 *1334:B1 0.000225616
22 *179:18 *1446:CLK 9.16325e-06
23 *179:18 *441:23 8.9904e-05
24 *179:18 *593:34 2.09235e-05
25 *179:18 *593:59 0.000333017
26 *179:29 *427:10 5.33005e-05
27 *602:GATE *179:29 5.52238e-05
28 *1129:A3 *179:18 6.78311e-05
29 *1129:B1 *179:18 6.92966e-05
30 *1130:A_N *179:18 4.90948e-05
31 *1130:A_N *179:29 0.000111417
32 *1134:A2 *179:18 0.000269622
33 *1134:B1 *179:18 9.71197e-05
34 *1281:B1 *1292:A1 3.69999e-05
35 *1292:B1 *1292:A1 0.000134539
36 *1317:B *179:18 0
37 *1359:B1 *1292:A1 1.01912e-05
38 *130:14 *179:18 2.84026e-05
39 *133:8 *179:18 0
40 *133:20 *179:18 0.000279
41 *174:20 *179:18 9.25014e-06
*RES
1 *1134:X *179:18 45.05 
2 *179:18 *1135:A 10.0321 
3 *179:18 *179:29 8.32143 
4 *179:29 *1173:B 16.05 
5 *179:29 *1292:A1 23.4607 
*END

*D_NET *180 0.00054501
*CONN
*I *1138:B I *D sky130_fd_sc_hd__nor3_2
*I *1136:X O *D sky130_fd_sc_hd__and3_2
*CAP
1 *1138:B 0.000234598
2 *1136:X 0.000234598
3 *1138:B *1136:A 1.32552e-05
4 *1138:B *1137:A2 5.62995e-05
5 *1138:B *1138:C 6.2589e-06
6 *1138:B *1157:A 0
7 *1138:B *581:100 0
8 *1138:B *585:94 0
9 *1125:B *1138:B 0
*RES
1 *1136:X *1138:B 30.9036 
*END

*D_NET *181 0.000474905
*CONN
*I *1138:C I *D sky130_fd_sc_hd__nor3_2
*I *1137:Y O *D sky130_fd_sc_hd__a21oi_2
*CAP
1 *1138:C 0.000175934
2 *1137:Y 0.000175934
3 *1138:C *581:108 5.52238e-05
4 *1138:C *585:94 6.15535e-05
5 *1138:B *1138:C 6.2589e-06
6 *1158:C1 *1138:C 0
*RES
1 *1137:Y *1138:C 30.7429 
*END

*D_NET *182 0.00577636
*CONN
*I *1294:B I *D sky130_fd_sc_hd__and4_2
*I *1142:B I *D sky130_fd_sc_hd__or2_2
*I *1141:A I *D sky130_fd_sc_hd__inv_2
*I *1140:X O *D sky130_fd_sc_hd__xor2_2
*CAP
1 *1294:B 0
2 *1142:B 1.18928e-05
3 *1141:A 0.000287238
4 *1140:X 0.000623617
5 *182:20 0.00106013
6 *182:10 0.00138462
7 *1141:A *1299:A_N 5.52238e-05
8 *1141:A *1300:A0 0.00014285
9 *1141:A *322:56 8.25843e-06
10 *1141:A *528:30 0.000109853
11 *1141:A *528:70 4.16984e-05
12 *182:10 *1140:A 9.90431e-05
13 *182:10 *1149:B 9.17232e-05
14 *182:10 *1194:A 0
15 *182:10 *1198:A2 9.70892e-05
16 *182:10 *1198:B1 2.46211e-05
17 *182:10 *1491:CLK 0.000351603
18 *182:10 *186:33 0.000151129
19 *182:10 *418:51 2.17086e-05
20 *182:10 *426:16 2.95726e-05
21 *182:10 *535:67 0
22 *182:20 *1142:A 2.89114e-05
23 *182:20 *1145:B 0
24 *182:20 *1194:A 0
25 *182:20 *1408:B 7.80915e-05
26 *182:20 *186:33 3.23658e-05
27 *182:20 *322:56 1.74795e-05
28 *182:20 *417:10 0
29 *182:20 *418:51 3.35685e-06
30 *182:20 *526:32 0.000102703
31 *182:20 *553:126 0.000181831
32 *182:20 *553:132 0.000151816
33 *1491:D *182:10 0.000587935
*RES
1 *1140:X *182:10 29.1393 
2 *182:10 *182:20 16.75 
3 *182:20 *1141:A 14.5143 
4 *182:20 *1142:B 9.72857 
5 *182:10 *1294:B 13.8 
*END

*D_NET *183 0.000509497
*CONN
*I *1300:A0 I *D sky130_fd_sc_hd__mux2_1
*I *1141:Y O *D sky130_fd_sc_hd__inv_2
*CAP
1 *1300:A0 0.00014544
2 *1141:Y 0.00014544
3 *1300:A0 *1299:A_N 7.57673e-05
4 *1300:A0 *590:115 0
5 *1141:A *1300:A0 0.00014285
*RES
1 *1141:Y *1300:A0 29.9929 
*END

*D_NET *184 0.00417206
*CONN
*I *1165:A2 I *D sky130_fd_sc_hd__a21o_2
*I *1143:B I *D sky130_fd_sc_hd__xor2_2
*I *1300:A1 I *D sky130_fd_sc_hd__mux2_1
*I *1142:X O *D sky130_fd_sc_hd__or2_2
*CAP
1 *1165:A2 0.000114673
2 *1143:B 0.00102637
3 *1300:A1 0.0012889
4 *1142:X 0.000377194
5 *1143:B *1320:A2 0.000313615
6 *1143:B *294:22 0.000137981
7 *1143:B *301:6 8.36572e-05
8 *1143:B *320:50 0.000159784
9 *1143:B *321:12 8.36362e-06
10 *1165:A2 *1143:A 9.42929e-05
11 *1165:A2 *1165:A1 0.000118618
12 *1165:A2 *1165:B1 9.11806e-06
13 *1165:A2 *1399:B1 7.8178e-06
14 *1165:A2 *294:22 4.96254e-05
15 *1165:A2 *600:27 5.80706e-06
16 *1300:A1 *1145:B 7.84126e-05
17 *1300:A1 *294:22 6.86792e-05
18 *1300:A1 *294:32 7.48301e-06
19 *1300:A1 *527:44 2.57669e-05
20 *1131:A *1300:A1 9.65182e-05
21 *1337:A1 *1143:B 9.93871e-05
*RES
1 *1142:X *1300:A1 32.7607 
2 *1300:A1 *1143:B 22.3446 
3 *1143:B *1165:A2 21.1304 
*END

*D_NET *185 0.00151048
*CONN
*I *1355:A1 I *D sky130_fd_sc_hd__o21bai_2
*I *1148:A I *D sky130_fd_sc_hd__and3_2
*I *1164:B I *D sky130_fd_sc_hd__and3_2
*I *1143:X O *D sky130_fd_sc_hd__xor2_2
*CAP
1 *1355:A1 0
2 *1148:A 4.70179e-05
3 *1164:B 0.000243793
4 *1143:X 0.000186763
5 *185:23 4.70179e-05
6 *185:8 0.000430556
7 *1148:A *1355:A2 6.11137e-05
8 *1148:A *190:12 0.000102013
9 *1164:B *1153:B 0
10 *1164:B *211:48 9.25014e-06
11 *1164:B *320:50 0.000109344
12 *1164:B *584:103 6.27272e-06
13 *1164:B *584:109 2.89016e-05
14 *185:8 *1076:A 3.10885e-05
15 *185:8 *320:50 0.000171171
16 *185:8 *362:14 3.61797e-05
17 *185:8 *585:106 0
*RES
1 *1143:X *185:8 16.9607 
2 *185:8 *1164:B 18.0321 
3 *185:8 *185:23 4.5 
4 *185:23 *1148:A 10.675 
5 *185:23 *1355:A1 9.3 
*END

*D_NET *186 0.00759392
*CONN
*I *1294:C I *D sky130_fd_sc_hd__and4_2
*I *1145:B I *D sky130_fd_sc_hd__or2_2
*I *1347:B I *D sky130_fd_sc_hd__xor2_2
*I *1144:X O *D sky130_fd_sc_hd__xor2_2
*CAP
1 *1294:C 0
2 *1145:B 0.000541654
3 *1347:B 0.00103316
4 *1144:X 0.000616099
5 *186:33 0.000958714
6 *1145:B *1194:A 3.10819e-05
7 *1145:B *1294:A 6.62898e-05
8 *1145:B *1508:CLK 9.25014e-06
9 *1145:B *227:20 0.000125057
10 *1145:B *294:22 3.51368e-05
11 *1145:B *294:32 0.000522023
12 *1145:B *417:10 0.000309597
13 *1145:B *525:24 0.000399929
14 *1347:B *1140:A 9.83442e-05
15 *1347:B *1144:A 5.20751e-05
16 *1347:B *1351:A2 0
17 *1347:B *1410:B 0
18 *1347:B *1519:CLK 0
19 *1347:B *227:20 0.000281424
20 *1347:B *587:90 0.000220455
21 *186:33 *1348:A 0.00013641
22 *186:33 *1348:B 8.79458e-05
23 *186:33 *1351:A3 0.000141985
24 *186:33 *1586:A 2.95726e-05
25 *186:33 *227:20 0.000421391
26 *186:33 *418:51 8.67618e-05
27 *1300:A1 *1145:B 7.84126e-05
28 *1489:D *1145:B 9.60939e-05
29 *1591:A *1347:B 0.000137113
30 *1592:A *1347:B 0
31 *79:20 *186:33 0.000666034
32 *81:18 *1347:B 9.01653e-05
33 *176:42 *1145:B 0.000138253
34 *182:10 *186:33 0.000151129
35 *182:20 *1145:B 0
36 *182:20 *186:33 3.23658e-05
*RES
1 *1144:X *1347:B 32.1214 
2 *1347:B *186:33 22.0446 
3 *186:33 *1145:B 33.1929 
4 *186:33 *1294:C 9.3 
*END

*D_NET *187 0.00471363
*CONN
*I *1301:A I *D sky130_fd_sc_hd__xor2_2
*I *1146:B I *D sky130_fd_sc_hd__or2_2
*I *1164:C I *D sky130_fd_sc_hd__and3_2
*I *1147:B I *D sky130_fd_sc_hd__nand2_2
*I *1299:A_N I *D sky130_fd_sc_hd__nand2b_2
*I *1145:X O *D sky130_fd_sc_hd__or2_2
*CAP
1 *1301:A 0
2 *1146:B 0
3 *1164:C 0.000112821
4 *1147:B 0
5 *1299:A_N 0.000272421
6 *1145:X 0.00016346
7 *187:39 0.000292702
8 *187:31 0.000394784
9 *187:12 0.000650784
10 *1164:C *206:12 9.80173e-05
11 *1164:C *584:109 0.000130942
12 *1299:A_N *1299:B 6.33588e-05
13 *1299:A_N *1300:S 0.000163246
14 *1299:A_N *1302:A2 0
15 *1299:A_N *528:30 5.52238e-05
16 *1299:A_N *590:115 0
17 *187:12 *1177:B 4.46186e-06
18 *187:12 *302:6 0.000125443
19 *187:12 *527:50 0.000123295
20 *187:12 *533:54 1.56e-05
21 *187:12 *590:115 0.000301438
22 *187:31 *1302:A1 0.000172336
23 *187:31 *1302:A2 1.46576e-05
24 *187:31 *1302:B1 0.000128304
25 *187:31 *1302:B2 0.000218124
26 *187:31 *302:6 7.77751e-05
27 *187:31 *584:137 5.49544e-05
28 *187:31 *585:106 0.000151422
29 *187:31 *590:115 0.000274288
30 *187:39 *1148:C 5.10822e-05
31 *187:39 *1355:A2 5.52302e-05
32 *187:39 *190:12 0.000142157
33 *187:39 *320:50 8.82117e-05
34 *187:39 *584:137 0
35 *187:39 *585:106 9.49241e-05
36 *1141:A *1299:A_N 5.52238e-05
37 *1300:A0 *1299:A_N 7.57673e-05
38 *82:20 *1299:A_N 9.60337e-06
39 *176:34 *1299:A_N 5.59013e-05
40 *176:34 *187:12 2.56694e-05
*RES
1 *1145:X *187:12 22.9429 
2 *187:12 *1299:A_N 23.5143 
3 *187:12 *187:31 8.07143 
4 *187:31 *187:39 13.4286 
5 *187:39 *1147:B 9.3 
6 *187:39 *1164:C 11.9071 
7 *187:31 *1146:B 9.3 
8 *187:12 *1301:A 9.3 
*END

*D_NET *188 0.00131937
*CONN
*I *1148:B I *D sky130_fd_sc_hd__and3_2
*I *1355:A2 I *D sky130_fd_sc_hd__o21bai_2
*I *1146:X O *D sky130_fd_sc_hd__or2_2
*CAP
1 *1148:B 0
2 *1355:A2 0.00014197
3 *1146:X 0.000208787
4 *188:6 0.000350757
5 *1355:A2 *1356:A1 0
6 *1355:A2 *190:12 2.42662e-05
7 *1355:A2 *320:50 1.97381e-05
8 *1355:A2 *585:106 0.000143865
9 *188:6 *585:106 0.000313647
10 *1148:A *1355:A2 6.11137e-05
11 *187:39 *1355:A2 5.52302e-05
*RES
1 *1146:X *188:6 12.3 
2 *188:6 *1355:A2 21.6393 
3 *188:6 *1148:B 9.3 
*END

*D_NET *189 0.000438022
*CONN
*I *1148:C I *D sky130_fd_sc_hd__and3_2
*I *1147:Y O *D sky130_fd_sc_hd__nand2_2
*CAP
1 *1148:C 0.00013756
2 *1147:Y 0.00013756
3 *1148:C *190:12 5.52238e-05
4 *1148:C *584:116 5.65955e-05
5 *187:39 *1148:C 5.10822e-05
*RES
1 *1147:Y *1148:C 30.0107 
*END

*D_NET *190 0.00376458
*CONN
*I *1171:A I *D sky130_fd_sc_hd__and3_2
*I *1356:A0 I *D sky130_fd_sc_hd__mux2_1
*I *1166:A1 I *D sky130_fd_sc_hd__a31o_2
*I *1148:X O *D sky130_fd_sc_hd__and3_2
*CAP
1 *1171:A 0.000273046
2 *1356:A0 0
3 *1166:A1 0.000211292
4 *1148:X 0.000566466
5 *190:14 0.000370132
6 *190:12 0.000998352
7 *1166:A1 *1153:B 0.00028694
8 *1171:A *1153:B 0
9 *1171:A *1306:B 0
10 *1171:A *206:12 0
11 *1171:A *597:14 0.000169824
12 *190:12 *1153:B 0.000313235
13 *190:12 *1356:A1 1.15281e-05
14 *190:12 *585:106 1.84708e-05
15 *190:14 *1153:B 0.000221634
16 *1148:A *190:12 0.000102013
17 *1148:C *190:12 5.52238e-05
18 *1355:A2 *190:12 2.42662e-05
19 *187:39 *190:12 0.000142157
*RES
1 *1148:X *190:12 18.2107 
2 *190:12 *190:14 2.17857 
3 *190:14 *1166:A1 12.3 
4 *190:14 *1356:A0 9.3 
5 *190:12 *1171:A 22.9786 
*END

*D_NET *191 0.0040014
*CONN
*I *1338:B I *D sky130_fd_sc_hd__xor2_2
*I *1534:A I *D sky130_fd_sc_hd__clkdlybuf4s25_1
*I *1149:X O *D sky130_fd_sc_hd__xor2_2
*CAP
1 *1338:B 0.000361855
2 *1534:A 0.000188495
3 *1149:X 0.000543229
4 *191:10 0.00109358
5 *1338:B *1348:B 0.000272633
6 *1338:B *1489:RESET_B 1.78695e-05
7 *1338:B *1512:CLK 0.000367803
8 *1338:B *222:31 3.79247e-05
9 *1338:B *417:53 0.000210232
10 *1338:B *553:29 3.26077e-05
11 *1534:A *1512:CLK 4.46186e-06
12 *1534:A *1587:A 7.02611e-05
13 *1534:A *194:35 4.65158e-06
14 *191:10 *1140:A 0.000230482
15 *191:10 *1144:B 0
16 *191:10 *1149:A 0.000126639
17 *191:10 *1149:B 0
18 *191:10 *1152:A 1.01912e-05
19 *191:10 *1193:B 4.78056e-05
20 *191:10 *1348:B 0
21 *191:10 *1410:A 0
22 *191:10 *1489:RESET_B 6.31632e-05
23 *191:10 *1491:SET_B 6.58852e-05
24 *191:10 *1556:A 0
25 *191:10 *217:27 0
26 *1499:D *1534:A 0.000174673
27 *80:56 *1338:B 7.69598e-05
28 *80:56 *191:10 0
*RES
1 *1149:X *191:10 25.3625 
2 *191:10 *1534:A 18.0946 
3 *191:10 *1338:B 14.3304 
*END

*D_NET *192 0.000901831
*CONN
*I *1160:B I *D sky130_fd_sc_hd__nand2_2
*I *1151:B I *D sky130_fd_sc_hd__or2_2
*I *1150:X O *D sky130_fd_sc_hd__or2_2
*CAP
1 *1160:B 0
2 *1151:B 0.000121223
3 *1150:X 3.6117e-05
4 *192:6 0.00015734
5 *1151:B *1151:A 0.000243042
6 *1151:B *204:10 0.000211138
7 *192:6 *1160:A 5.52302e-05
8 *192:6 *213:26 4.58194e-05
9 *192:6 *320:50 1.98839e-05
10 *1130:B *1151:B 1.20379e-05
*RES
1 *1150:X *192:6 10.2464 
2 *192:6 *1151:B 21.6929 
3 *192:6 *1160:B 9.3 
*END

*D_NET *193 0.00145873
*CONN
*I *1163:A I *D sky130_fd_sc_hd__nand2_2
*I *1166:A2 I *D sky130_fd_sc_hd__a31o_2
*I *1167:A I *D sky130_fd_sc_hd__and2_2
*I *1151:X O *D sky130_fd_sc_hd__or2_2
*CAP
1 *1163:A 8.99972e-05
2 *1166:A2 3.77832e-05
3 *1167:A 0.000170384
4 *1151:X 0
5 *193:8 0.00028307
6 *193:4 0.000164899
7 *1163:A *1163:B 4.38128e-05
8 *1166:A2 *1163:B 5.17155e-05
9 *1166:A2 *204:10 9.42273e-05
10 *1167:A *1161:B 2.14757e-05
11 *1167:A *1163:B 1.38167e-05
12 *1167:A *1167:B 5.71472e-05
13 *1167:A *1168:D 0
14 *1167:A *204:10 0.000211488
15 *1167:A *213:26 9.90431e-05
16 *1167:A *585:94 0
17 *1167:A *586:74 0
18 *193:8 *1151:A 2.89114e-05
19 *193:8 *1163:B 5.52302e-05
20 *176:24 *1163:A 2.65105e-05
21 *176:24 *193:8 9.22103e-06
*RES
1 *1151:X *193:4 9.3 
2 *193:4 *193:8 5.85714 
3 *193:8 *1167:A 17.6036 
4 *193:8 *1166:A2 15.1393 
5 *193:4 *1163:A 11.0857 
*END

*D_NET *194 0.0130549
*CONN
*I *1268:C I *D sky130_fd_sc_hd__and3_2
*I *1274:C I *D sky130_fd_sc_hd__and3_2
*I *1256:B I *D sky130_fd_sc_hd__and2_2
*I *1249:A_N I *D sky130_fd_sc_hd__and2b_2
*I *1597:A I *D sky130_fd_sc_hd__clkbuf_2
*I *1348:B I *D sky130_fd_sc_hd__xor2_2
*I *1152:X O *D sky130_fd_sc_hd__xor2_2
*CAP
1 *1268:C 0
2 *1274:C 0.000234608
3 *1256:B 2.37855e-05
4 *1249:A_N 0.00015254
5 *1597:A 0
6 *1348:B 0.000818498
7 *1152:X 0.000293614
8 *194:90 0.000390197
9 *194:70 0.00020621
10 *194:68 0.00228158
11 *194:35 0.00262099
12 *1249:A_N *1284:B 0.000182694
13 *1249:A_N *259:6 4.18895e-05
14 *1249:A_N *472:51 1.15172e-05
15 *1249:A_N *526:108 5.17614e-05
16 *1249:A_N *526:112 7.61932e-05
17 *1249:A_N *526:116 4.35452e-05
18 *1274:C *1268:A 5.52302e-05
19 *1274:C *473:12 0.000277581
20 *1348:B *1193:A 1.33343e-05
21 *1348:B *227:20 4.57695e-05
22 *194:35 *1294:D 6.81133e-05
23 *194:35 *1575:A 0
24 *194:35 *1587:A 9.93531e-05
25 *194:35 *527:42 0
26 *194:35 *587:70 0.00011396
27 *194:68 *1277:C_N 3.2687e-05
28 *194:68 *1279:B 0.000132621
29 *194:68 *1279:C 8.39516e-05
30 *194:68 *1444:CLK 8.23597e-06
31 *194:68 *1494:CLK 3.50062e-05
32 *194:68 *1535:A 9.41642e-05
33 *194:68 *265:10 0.00010096
34 *194:68 *275:14 6.05161e-06
35 *194:68 *282:12 2.59355e-05
36 *194:68 *418:23 2.11419e-05
37 *194:68 *418:27 0.00023367
38 *194:68 *418:34 6.09925e-05
39 *194:68 *472:39 5.44305e-05
40 *194:68 *526:108 1.98839e-05
41 *194:68 *527:10 0.000393936
42 *194:68 *527:42 0
43 *194:68 *533:85 0.000937386
44 *194:68 *587:70 0.000355271
45 *194:70 *526:108 2.14658e-05
46 *194:90 *1268:A 0.000168939
47 *194:90 *457:42 0
48 *194:90 *468:24 4.52492e-05
49 *194:90 *526:108 0.00012401
50 uo_out[6] *194:68 0
51 *1338:B *1348:B 0.000272633
52 *1489:D *194:35 1.01912e-05
53 *1489:D *194:68 0.000106546
54 *1534:A *194:35 4.65158e-06
55 *80:56 *1348:B 0.000328094
56 *81:18 *194:35 0.000889329
57 *81:18 *194:68 0.000296594
58 *186:33 *1348:B 8.79458e-05
59 *191:10 *1348:B 0
*RES
1 *1152:X *1348:B 25.3446 
2 *1348:B *194:35 16.022 
3 *194:35 *1597:A 13.8 
4 *194:35 *194:68 39.346 
5 *194:68 *194:70 0.535714 
6 *194:70 *1249:A_N 13.1214 
7 *194:70 *1256:B 9.72857 
8 *194:68 *194:90 12.4643 
9 *194:90 *1274:C 13.6929 
10 *194:90 *1268:C 9.3 
*END

*D_NET *195 0.00240511
*CONN
*I *1155:B I *D sky130_fd_sc_hd__or2_2
*I *1154:B I *D sky130_fd_sc_hd__and2_2
*I *1153:X O *D sky130_fd_sc_hd__or2_2
*CAP
1 *1155:B 3.09765e-05
2 *1154:B 0.000245469
3 *1153:X 0.000309058
4 *195:8 0.000585503
5 *1154:B *1461:RESET_B 0.000102196
6 *1154:B *1543:A 0.000342232
7 *1154:B *196:6 5.71472e-05
8 *1154:B *428:10 1.19402e-05
9 *1154:B *429:16 0
10 *1154:B *429:42 0
11 *1154:B *579:56 6.8646e-06
12 *1154:B *581:100 4.88637e-05
13 *1154:B *582:55 0
14 *1154:B *582:66 0
15 *1155:B *1543:A 5.33005e-05
16 *1155:B *320:24 9.90431e-05
17 *195:8 *1153:B 1.18064e-05
18 *195:8 *1360:C 0
19 *195:8 *197:12 0.000139453
20 *195:8 *428:10 8.11393e-05
21 *195:8 *579:56 0.000280121
*RES
1 *1153:X *195:8 20.9071 
2 *195:8 *1154:B 20.2643 
3 *195:8 *1155:B 14.7464 
*END

*D_NET *196 0.00115048
*CONN
*I *1161:A_N I *D sky130_fd_sc_hd__nand2b_2
*I *1156:A_N I *D sky130_fd_sc_hd__and2b_2
*I *1154:X O *D sky130_fd_sc_hd__and2_2
*CAP
1 *1161:A_N 0.000161224
2 *1156:A_N 0
3 *1154:X 4.03884e-05
4 *196:6 0.000201613
5 *1161:A_N *198:12 8.71847e-05
6 *1161:A_N *580:88 6.71854e-05
7 *1161:A_N *581:100 0.000388604
8 *196:6 *198:12 5.30637e-06
9 *196:6 *581:100 0.00014183
10 *1154:B *196:6 5.71472e-05
*RES
1 *1154:X *196:6 10.6571 
2 *196:6 *1156:A_N 9.3 
3 *196:6 *1161:A_N 14.3536 
*END

*D_NET *197 0.00362795
*CONN
*I *1156:B I *D sky130_fd_sc_hd__and2b_2
*I *1359:A1 I *D sky130_fd_sc_hd__a21oi_2
*I *1358:A I *D sky130_fd_sc_hd__or2_2
*I *1155:X O *D sky130_fd_sc_hd__or2_2
*CAP
1 *1156:B 0.000242111
2 *1359:A1 0
3 *1358:A 0.000257595
4 *1155:X 0
5 *197:12 0.000539713
6 *197:4 0.000524229
7 *1156:B *1150:A 0
8 *1156:B *1150:B 0
9 *1156:B *1360:B 0
10 *1156:B *209:16 8.6229e-06
11 *1156:B *579:56 4.66203e-05
12 *1156:B *582:104 7.72906e-05
13 *1156:B *582:110 0.000244365
14 *1358:A *1172:B 0.000289069
15 *1358:A *1358:B 0.000655906
16 *1358:A *209:16 4.43256e-05
17 *1358:A *429:42 0.000117776
18 *197:12 *213:26 0.000265447
19 *197:12 *428:10 6.08429e-05
20 *1130:A_N *1358:A 0.000114587
21 *1130:B *1156:B 0
22 *195:8 *197:12 0.000139453
*RES
1 *1155:X *197:4 9.3 
2 *197:4 *197:12 13.5357 
3 *197:12 *1358:A 27.2821 
4 *197:12 *1359:A1 9.3 
5 *197:4 *1156:B 23.5857 
*END

*D_NET *198 0.00318155
*CONN
*I *1162:A1 I *D sky130_fd_sc_hd__a31o_2
*I *1168:C I *D sky130_fd_sc_hd__and4_2
*I *1357:A I *D sky130_fd_sc_hd__xor2_2
*I *1156:X O *D sky130_fd_sc_hd__and2b_2
*CAP
1 *1162:A1 0.000171376
2 *1168:C 0.000507184
3 *1357:A 0
4 *1156:X 0.000208535
5 *198:12 0.000544343
6 *1162:A1 *1162:A2 0.000186662
7 *1168:C *1162:A2 6.57815e-05
8 *1168:C *1162:B1 9.90431e-05
9 *1168:C *1357:B 0.00073283
10 *1168:C *1360:B 3.18676e-05
11 *1168:C *204:10 1.92789e-05
12 *1168:C *582:110 3.98559e-05
13 *198:12 *1543:A 0.000127446
14 *198:12 *579:56 0.00012401
15 *1161:A_N *198:12 8.71847e-05
16 *1168:A *1168:C 0.00014183
17 *1168:B *1162:A1 5.71472e-05
18 *1168:B *1168:C 3.18676e-05
19 *196:6 *198:12 5.30637e-06
*RES
1 *1156:X *198:12 22.1214 
2 *198:12 *1357:A 9.3 
3 *198:12 *1168:C 18.8893 
4 *1168:C *1162:A1 21.1893 
*END

*D_NET *199 0.00144298
*CONN
*I *1159:A I *D sky130_fd_sc_hd__nand2_2
*I *1162:A2 I *D sky130_fd_sc_hd__a31o_2
*I *1157:X O *D sky130_fd_sc_hd__or2_2
*CAP
1 *1159:A 6.40795e-05
2 *1162:A2 0.000288462
3 *1157:X 0.000352541
4 *1159:A *1162:A3 9.60875e-05
5 *1159:A *580:88 1.98839e-05
6 *1162:A2 *1162:B1 9.90431e-05
7 *1162:A2 *1357:B 0.000133485
8 *1162:A2 *585:94 0
9 *1157:B *1159:A 0.000136951
10 *1162:A1 *1162:A2 0.000186662
11 *1168:C *1162:A2 6.57815e-05
*RES
1 *1157:X *1162:A2 33.4036 
2 *1157:X *1159:A 20.3857 
*END

*D_NET *200 0.00265759
*CONN
*I *1159:B I *D sky130_fd_sc_hd__nand2_2
*I *1162:A3 I *D sky130_fd_sc_hd__a31o_2
*I *1158:X O *D sky130_fd_sc_hd__a221o_2
*CAP
1 *1159:B 0
2 *1162:A3 0.000227841
3 *1158:X 0.000403046
4 *200:12 0.000630887
5 *1162:A3 *1157:A 5.52238e-05
6 *1162:A3 *1161:B 0.000196058
7 *1162:A3 *1357:B 2.28499e-05
8 *1162:A3 *580:88 0.000415432
9 *200:12 *1158:A2 3.95455e-05
10 *200:12 *1158:B2 7.70134e-06
11 *200:12 *581:112 5.91367e-05
12 *200:12 *581:116 2.23322e-05
13 *200:12 *585:94 0.000120697
14 *200:12 *597:14 0.000174206
15 *1130:B *1162:A3 7.25659e-05
16 *1157:B *1162:A3 7.0397e-05
17 *1158:B1 *200:12 4.35881e-05
18 *1159:A *1162:A3 9.60875e-05
*RES
1 *1158:X *200:12 24.5857 
2 *200:12 *1162:A3 25.8 
3 *200:12 *1159:B 9.3 
*END

*D_NET *201 0.00285826
*CONN
*I *1357:B I *D sky130_fd_sc_hd__xor2_2
*I *1159:Y O *D sky130_fd_sc_hd__nand2_2
*CAP
1 *1357:B 0.00044395
2 *1159:Y 0.00044395
3 *1357:B *1161:B 1.41029e-05
4 *1357:B *1162:B1 0.000100823
5 *1357:B *580:88 0.000315165
6 *1357:B *582:110 0.000651102
7 *1357:B *585:94 0
8 *1162:A2 *1357:B 0.000133485
9 *1162:A3 *1357:B 2.28499e-05
10 *1168:C *1357:B 0.00073283
*RES
1 *1159:Y *1357:B 31.5411 
*END

*D_NET *202 0.00121426
*CONN
*I *1167:B I *D sky130_fd_sc_hd__and2_2
*I *1161:B I *D sky130_fd_sc_hd__nand2b_2
*I *1160:Y O *D sky130_fd_sc_hd__nand2_2
*CAP
1 *1167:B 2.22177e-05
2 *1161:B 0.000214337
3 *1160:Y 0
4 *202:4 0.000236555
5 *1161:B *1160:A 1.73088e-05
6 *1161:B *1162:B1 0.00014627
7 *1161:B *1168:D 0
8 *1161:B *204:10 9.80405e-05
9 *1161:B *320:50 5.52302e-05
10 *1161:B *580:88 4.1331e-06
11 *1161:B *583:41 1.12577e-05
12 *1161:B *585:94 0
13 *1167:B *213:26 4.68263e-05
14 *1167:B *320:50 7.32955e-05
15 *1162:A3 *1161:B 0.000196058
16 *1167:A *1161:B 2.14757e-05
17 *1167:A *1167:B 5.71472e-05
18 *1357:B *1161:B 1.41029e-05
*RES
1 *1160:Y *202:4 9.3 
2 *202:4 *1161:B 23.6393 
3 *202:4 *1167:B 10.6571 
*END

*D_NET *203 0.000618802
*CONN
*I *1162:B1 I *D sky130_fd_sc_hd__a31o_2
*I *1161:Y O *D sky130_fd_sc_hd__nand2b_2
*CAP
1 *1162:B1 8.68111e-05
2 *1161:Y 8.68111e-05
3 *1161:B *1162:B1 0.00014627
4 *1162:A2 *1162:B1 9.90431e-05
5 *1168:C *1162:B1 9.90431e-05
6 *1357:B *1162:B1 0.000100823
*RES
1 *1161:Y *1162:B1 30.4929 
*END

*D_NET *204 0.00196731
*CONN
*I *1163:B I *D sky130_fd_sc_hd__nand2_2
*I *1166:A3 I *D sky130_fd_sc_hd__a31o_2
*I *1162:X O *D sky130_fd_sc_hd__a31o_2
*CAP
1 *1163:B 0.000231991
2 *1166:A3 0
3 *1162:X 0.000298481
4 *204:10 0.000530472
5 *1163:B *1361:A 0
6 *1163:B *361:10 6.10018e-06
7 *1163:B *586:74 0
8 *204:10 *1151:A 8.44271e-06
9 *204:10 *1168:D 0
10 *204:10 *1360:B 0
11 *204:10 *361:10 4.46186e-06
12 *204:10 *583:41 4.84319e-05
13 *1151:B *204:10 0.000211138
14 *1161:B *204:10 9.80405e-05
15 *1163:A *1163:B 4.38128e-05
16 *1166:A2 *1163:B 5.17155e-05
17 *1166:A2 *204:10 9.42273e-05
18 *1167:A *1163:B 1.38167e-05
19 *1167:A *204:10 0.000211488
20 *1168:C *204:10 1.92789e-05
21 *176:24 *1163:B 4.01768e-05
22 *193:8 *1163:B 5.52302e-05
*RES
1 *1162:X *204:10 20.5321 
2 *204:10 *1166:A3 13.8 
3 *204:10 *1163:B 18.4786 
*END

*D_NET *205 0.000613777
*CONN
*I *1356:S I *D sky130_fd_sc_hd__mux2_1
*I *1163:Y O *D sky130_fd_sc_hd__nand2_2
*CAP
1 *1356:S 0.000124519
2 *1163:Y 0.000124519
3 *1356:S *585:94 0.00016959
4 *1356:S *597:14 0.00016959
5 *176:24 *1356:S 2.55587e-05
*RES
1 *1163:Y *1356:S 30.7964 
*END

*D_NET *206 0.00206212
*CONN
*I *1355:B1_N I *D sky130_fd_sc_hd__o21bai_2
*I *1165:B1 I *D sky130_fd_sc_hd__a21o_2
*I *1164:X O *D sky130_fd_sc_hd__and3_2
*CAP
1 *1355:B1_N 0
2 *1165:B1 0.000252209
3 *1164:X 0.000325947
4 *206:12 0.000578156
5 *1165:B1 *1153:B 0.000230475
6 *1165:B1 *1165:A1 5.79737e-05
7 *1165:B1 *1166:B1 0.000168121
8 *1165:B1 *1356:A1 0.000123673
9 *1165:B1 *1399:C1 5.80706e-06
10 *1165:B1 *585:106 6.01416e-05
11 *1165:B1 *597:14 1.00375e-05
12 *1165:B1 *600:27 0
13 *206:12 *1153:B 9.91086e-05
14 *206:12 *584:109 3.48705e-05
15 *1164:C *206:12 9.80173e-05
16 *1165:A2 *1165:B1 9.11806e-06
17 *1171:A *206:12 0
18 *176:24 *206:12 8.46044e-06
*RES
1 *1164:X *206:12 22.9429 
2 *206:12 *1165:B1 25.4607 
3 *206:12 *1355:B1_N 9.3 
*END

*D_NET *207 0.00160203
*CONN
*I *1166:B1 I *D sky130_fd_sc_hd__a31o_2
*I *1165:X O *D sky130_fd_sc_hd__a21o_2
*CAP
1 *1166:B1 0.000299992
2 *1165:X 0.000299992
3 *1166:B1 *1153:B 0.000395866
4 *1166:B1 *1356:A1 6.57032e-05
5 *1166:B1 *357:10 2.27416e-05
6 *1166:B1 *597:14 0.00034961
7 *1165:B1 *1166:B1 0.000168121
*RES
1 *1165:X *1166:B1 36.1 
*END

*D_NET *208 0.00351397
*CONN
*I *1172:C I *D sky130_fd_sc_hd__and3b_2
*I *1361:A I *D sky130_fd_sc_hd__nand4_2
*I *1397:A1 I *D sky130_fd_sc_hd__a31o_2
*I *1166:X O *D sky130_fd_sc_hd__a31o_2
*CAP
1 *1172:C 0.000641693
2 *1361:A 0.000191962
3 *1397:A1 0.000105506
4 *1166:X 0.000766503
5 *208:10 0.000422278
6 *1172:C *1153:B 3.81843e-05
7 *1172:C *1360:A_N 0.000159478
8 *1172:C *1360:B 0.000110725
9 *1172:C *361:10 0.00018077
10 *1361:A *1361:D 8.41254e-05
11 *1361:A *294:22 0.000152048
12 *1361:A *362:14 0.000166725
13 *1397:A1 *1361:D 2.50022e-05
14 *1397:A1 *1397:A2 6.07037e-07
15 *1397:A1 *1397:A3 4.9663e-06
16 *1397:A1 *1398:A1 0.000144053
17 *1397:A1 *1398:A2 0.000107024
18 *208:10 *1153:B 9.90431e-05
19 *208:10 *1361:D 1.36181e-05
20 *208:10 *1397:A3 1.36181e-05
21 *208:10 *357:10 2.28335e-05
22 *208:10 *361:10 5.10822e-05
23 *208:10 *586:74 0
24 *1163:B *1361:A 0
25 *1359:B1 *1172:C 1.21258e-05
*RES
1 *1166:X *208:10 16.3893 
2 *208:10 *1397:A1 16.05 
3 *208:10 *1361:A 18.8536 
4 *1166:X *1172:C 26.8991 
*END

*D_NET *209 0.00519166
*CONN
*I *1168:D I *D sky130_fd_sc_hd__and4_2
*I *1359:A2 I *D sky130_fd_sc_hd__a21oi_2
*I *1358:B I *D sky130_fd_sc_hd__or2_2
*I *1167:X O *D sky130_fd_sc_hd__and2_2
*CAP
1 *1168:D 0.000193752
2 *1359:A2 0
3 *1358:B 0.000364522
4 *1167:X 0
5 *209:16 0.0011019
6 *209:4 0.000931128
7 *1168:D *213:26 3.14078e-05
8 *1168:D *585:94 0.000193429
9 *1358:B *1173:A 0.0001399
10 *1358:B *1441:C1 2.89016e-05
11 *1358:B *213:26 0.000170901
12 *1358:B *429:42 5.25862e-06
13 *1358:B *457:42 1.38323e-05
14 *1358:B *589:146 1.19402e-05
15 *209:16 *1150:A 0
16 *209:16 *1360:D 6.09773e-05
17 *209:16 *213:26 0.000706294
18 *209:16 *457:42 0.000419373
19 *209:16 *582:104 3.85835e-05
20 *1130:A_N *1358:B 1.39841e-05
21 *1130:A_N *209:16 2.90075e-05
22 *1156:B *209:16 8.6229e-06
23 *1161:B *1168:D 0
24 *1167:A *1168:D 0
25 *1292:B1 *1358:B 2.77209e-05
26 *1358:A *1358:B 0.000655906
27 *1358:A *209:16 4.43256e-05
28 *204:10 *1168:D 0
*RES
1 *1167:X *209:4 9.3 
2 *209:4 *209:16 21.6964 
3 *209:16 *1358:B 27.7107 
4 *209:16 *1359:A2 9.3 
5 *209:4 *1168:D 21.8 
*END

*D_NET *210 0.00092128
*CONN
*I *1171:B I *D sky130_fd_sc_hd__and3_2
*I *1168:X O *D sky130_fd_sc_hd__and4_2
*CAP
1 *1171:B 0.00021362
2 *1168:X 0.00021362
3 *1171:B *213:26 0.000198212
4 *1171:B *585:94 0.000148707
5 *1171:B *597:14 0.000147121
*RES
1 *1168:X *1171:B 32.5821 
*END

*D_NET *211 0.0137894
*CONN
*I *1314:D I *D sky130_fd_sc_hd__nor4_2
*I *1170:B I *D sky130_fd_sc_hd__nor2_2
*I *1173:C I *D sky130_fd_sc_hd__nor3_2
*I *1169:X O *D sky130_fd_sc_hd__or4b_2
*CAP
1 *1314:D 0
2 *1170:B 0
3 *1173:C 0
4 *1169:X 0.000877314
5 *211:48 0.00248154
6 *211:26 0.00279084
7 *211:16 0.00118662
8 *211:16 *1184:B 2.89016e-05
9 *211:16 *1185:A1 0.000204772
10 *211:16 *1185:B1 0.000192499
11 *211:16 *1186:B 1.38323e-05
12 *211:16 *1566:A 9.83388e-05
13 *211:16 *572:49 0.000142725
14 *211:26 *1315:A2_N 7.58571e-05
15 *211:48 *1150:B 6.02982e-05
16 *211:48 *1230:B 6.74751e-05
17 *211:48 *1298:B1 1.54142e-05
18 *211:48 *1315:A2_N 2.87555e-06
19 *211:48 *1315:B1 0.000603438
20 *211:48 *213:26 6.43761e-05
21 *211:48 *320:50 6.35864e-05
22 *211:48 *451:24 0.000195291
23 *211:48 *525:30 0.000222541
24 *211:48 *526:68 0.00128884
25 *211:48 *527:50 0.000128496
26 *211:48 *527:60 0.000180777
27 *211:48 *528:70 6.48916e-05
28 *211:48 *582:68 0.000362621
29 *211:48 *582:104 0.000216577
30 *211:48 *583:37 0.000201022
31 *211:48 *584:103 0.000279645
32 *211:48 *584:109 9.7659e-05
33 *211:48 *584:116 7.16426e-05
34 *211:48 *586:74 0.000532067
35 *1099:A_N *211:16 0.000140933
36 *1101:B1 *211:16 8.11028e-06
37 *1123:B *211:26 0
38 *1164:B *211:48 9.25014e-06
39 *1170:A *211:26 0
40 *1170:A *211:48 1.02504e-05
41 *1173:B *211:48 3.71343e-05
42 *1314:B *211:26 4.1331e-06
43 *1484:D *211:16 0.000230475
44 *148:25 *211:16 3.32997e-05
45 *157:49 *211:16 0.00047222
46 *157:49 *211:26 3.08664e-05
47 *176:24 *211:48 0
*RES
1 *1169:X *211:16 39.8179 
2 *211:16 *211:26 14.5714 
3 *211:26 *211:48 49.2637 
4 *211:48 *1173:C 9.3 
5 *211:26 *1170:B 9.3 
6 *211:16 *1314:D 9.3 
*END

*D_NET *212 0.00440963
*CONN
*I *1171:C I *D sky130_fd_sc_hd__and3_2
*I *1170:Y O *D sky130_fd_sc_hd__nor2_2
*CAP
1 *1171:C 0.000666862
2 *1170:Y 0.000666862
3 *1171:C *1297:A2 0.000139907
4 *1171:C *1309:A2 2.22891e-05
5 *1171:C *1309:B1 0.000126405
6 *1171:C *1313:C1 0.000843923
7 *1171:C *213:26 0.000144773
8 *1171:C *304:8 5.74499e-06
9 *1171:C *320:50 0.000286769
10 *1171:C *450:50 0.000153056
11 *1171:C *451:48 0.000430808
12 *1171:C *451:60 5.71472e-05
13 *1171:C *527:90 0.000740827
14 *1171:C *528:70 9.80405e-05
15 *176:24 *1171:C 2.62124e-05
*RES
1 *1170:Y *1171:C 48.3143 
*END

*D_NET *213 0.00582377
*CONN
*I *1172:A_N I *D sky130_fd_sc_hd__and3b_2
*I *1292:A2 I *D sky130_fd_sc_hd__a21oi_2
*I *1171:X O *D sky130_fd_sc_hd__and3_2
*CAP
1 *1172:A_N 0
2 *1292:A2 0.000154996
3 *1171:X 0.00087354
4 *213:26 0.00102854
5 *1292:A2 *602:CLK 0.000221682
6 *1292:A2 *1360:A_N 0.000127999
7 *1292:A2 *1548:A 0.0001399
8 *1292:A2 *589:146 0.000112398
9 *213:26 *1160:A 1.39726e-05
10 *213:26 *1173:A 0.000119656
11 *213:26 *1360:A_N 5.52238e-05
12 *213:26 *1548:A 3.71847e-05
13 *213:26 *320:24 0.000770751
14 *213:26 *320:50 0.000246847
15 *213:26 *582:66 9.99386e-05
16 *213:26 *583:37 4.80441e-05
17 *213:26 *589:146 0
18 *1167:A *213:26 9.90431e-05
19 *1167:B *213:26 4.68263e-05
20 *1168:D *213:26 3.14078e-05
21 *1171:B *213:26 0.000198212
22 *1171:C *213:26 0.000144773
23 *1358:B *213:26 0.000170901
24 *192:6 *213:26 4.58194e-05
25 *197:12 *213:26 0.000265447
26 *209:16 *213:26 0.000706294
27 *211:48 *213:26 6.43761e-05
*RES
1 *1171:X *213:26 49.3826 
2 *213:26 *1292:A2 23.3357 
3 *213:26 *1172:A_N 9.3 
*END

*D_NET *214 0.00339191
*CONN
*I *1186:B I *D sky130_fd_sc_hd__nor2_2
*I *1185:A1 I *D sky130_fd_sc_hd__o21ai_2
*I *1174:X O *D sky130_fd_sc_hd__and2_2
*CAP
1 *1186:B 0.000384643
2 *1185:A1 6.4829e-05
3 *1174:X 0.000268722
4 *214:12 0.000718194
5 *1185:A1 *1185:B1 0.00010096
6 *1185:A1 *1566:A 5.49489e-05
7 *1186:B *1186:A 5.71263e-05
8 *1186:B *1189:A 0.0001108
9 *1186:B *1189:B 0.0001703
10 *1186:B *1485:CLK 5.33005e-05
11 *1186:B *1566:A 5.33005e-05
12 *1186:B *448:12 2.59355e-05
13 *214:12 *1097:A2 0
14 *214:12 *420:10 5.49489e-05
15 *214:12 *447:12 0.000198947
16 *214:12 *447:18 7.40526e-05
17 *214:12 *528:93 0
18 *214:12 *528:114 2.07809e-05
19 *1099:A_N *1186:B 0.00022266
20 *1099:B *1186:B 5.33005e-05
21 *157:49 *1185:A1 0.0001395
22 *157:49 *1186:B 0.000346053
23 *211:16 *1185:A1 0.000204772
24 *211:16 *1186:B 1.38323e-05
*RES
1 *1174:X *214:12 22.6036 
2 *214:12 *1185:A1 12.4429 
3 *214:12 *1186:B 27.7107 
*END

*D_NET *215 0.00173147
*CONN
*I *1188:B I *D sky130_fd_sc_hd__nor2_2
*I *1176:B I *D sky130_fd_sc_hd__and2_2
*I *1187:A1 I *D sky130_fd_sc_hd__o21ai_2
*I *1175:X O *D sky130_fd_sc_hd__and3_2
*CAP
1 *1188:B 9.54642e-05
2 *1176:B 5.40218e-05
3 *1187:A1 0.000188349
4 *1175:X 5.04621e-05
5 *215:24 0.000287373
6 *1176:B *1176:A 3.89749e-05
7 *1176:B *1539:A 9.60875e-05
8 *1176:B *449:36 2.59355e-05
9 *1187:A1 *1184:B 5.52238e-05
10 *1187:A1 *1346:C 6.76043e-05
11 *1188:B *1189:B 9.97669e-05
12 *1188:B *1341:A 2.82057e-05
13 *1188:B *1345:A 0.000149554
14 *1188:B *1539:A 0.000178847
15 *1188:B *449:36 9.16173e-05
16 *215:24 *1189:A 0.000125717
17 *215:24 *1189:B 0
18 *215:24 *1339:B 1.38167e-05
19 *215:24 *1345:A 9.86094e-06
20 *215:24 *1346:C 0
21 *215:24 *449:51 5.26224e-05
22 *215:24 *572:49 2.19684e-05
*RES
1 *1175:X *1187:A1 19.975 
2 *1187:A1 *215:24 21.1571 
3 *215:24 *1176:B 10.675 
4 *215:24 *1188:B 22.0143 
*END

*D_NET *216 0.00691106
*CONN
*I *1189:A I *D sky130_fd_sc_hd__nor2_2
*I *1177:C I *D sky130_fd_sc_hd__and3_2
*I *1191:A2 I *D sky130_fd_sc_hd__a21oi_2
*I *1190:B I *D sky130_fd_sc_hd__xor2_2
*I *1176:X O *D sky130_fd_sc_hd__and2_2
*CAP
1 *1189:A 0.000399999
2 *1177:C 0.000302025
3 *1191:A2 0
4 *1190:B 0.000120037
5 *1176:X 0
6 *216:17 0.00037993
7 *216:8 0.00148695
8 *216:4 0.00168901
9 *1177:C *525:24 1.6507e-05
10 *1177:C *526:32 0
11 *1177:C *533:54 0.00027107
12 *1189:A *1186:A 5.71263e-05
13 *1189:A *1187:B1 2.11419e-05
14 *1189:A *1189:B 1.8272e-05
15 *1189:A *1486:CLK 4.90426e-05
16 *1189:A *446:58 5.33005e-05
17 *1189:A *572:49 0
18 *1190:B *1315:A2_N 0
19 *1190:B *418:55 0
20 *1190:B *526:32 0
21 *216:8 *446:58 0.000794337
22 *216:8 *451:12 0.000442448
23 *216:8 *451:18 0.000148105
24 *216:8 *586:74 0.000121926
25 *216:17 *1315:A2_N 0
26 *216:17 *525:24 1.33434e-05
27 *216:17 *526:32 0
28 *1101:A1 *1189:A 0
29 *1101:B1 *1189:A 4.00349e-05
30 *1186:B *1189:A 0.0001108
31 *151:16 *1189:A 0.000193641
32 *157:49 *1189:A 5.62995e-05
33 *215:24 *1189:A 0.000125717
*RES
1 *1176:X *216:4 9.3 
2 *216:4 *216:8 22.6964 
3 *216:8 *1190:B 6.44643 
4 *216:8 *216:17 1.03571 
5 *216:17 *1191:A2 13.8 
6 *216:17 *1177:C 18.0321 
7 *216:4 *1189:A 27.2464 
*END

*D_NET *217 0.00799573
*CONN
*I *1193:B I *D sky130_fd_sc_hd__nor2_2
*I *1178:B I *D sky130_fd_sc_hd__and2_2
*I *1192:A1 I *D sky130_fd_sc_hd__o21ai_2
*I *1177:X O *D sky130_fd_sc_hd__and3_2
*CAP
1 *1193:B 0.000398001
2 *1178:B 0.00033759
3 *1192:A1 0.00016005
4 *1177:X 0.000387891
5 *217:27 0.00147438
6 *217:8 0.00128673
7 *1178:B *1180:B 5.99995e-05
8 *1178:B *218:8 4.58194e-05
9 *1178:B *587:90 3.69047e-06
10 *1192:A1 *1584:A 0
11 *1192:A1 *418:51 5.29278e-05
12 *1192:A1 *533:54 7.32173e-05
13 *1193:B *1193:A 0.000316184
14 *1193:B *1197:B1 0.000185643
15 *1193:B *1410:A 0.000531286
16 *1193:B *1556:A 3.25247e-05
17 *1193:B *512:28 9.83642e-05
18 *1193:B *587:90 8.02709e-05
19 *217:8 *1508:CLK 2.89114e-05
20 *217:8 *533:54 8.56854e-05
21 *217:27 *1152:A 0
22 *217:27 *1295:B 1.36976e-05
23 *217:27 *1338:A 2.53083e-05
24 *217:27 *1556:A 7.10813e-05
25 *217:27 *1584:A 0
26 *217:27 *1585:A 0.000144391
27 *217:27 *1587:A 7.31401e-05
28 *217:27 *418:51 0.0010387
29 *217:27 *587:90 0.00024732
30 *1488:D *1192:A1 0.000199307
31 *1491:D *1178:B 2.79421e-05
32 *1491:D *217:27 1.57206e-05
33 *1508:D *217:8 6.24995e-05
34 *80:56 *1193:B 1.02821e-05
35 *83:28 *217:27 0.000379365
36 *191:10 *1193:B 4.78056e-05
37 *191:10 *217:27 0
*RES
1 *1177:X *217:8 18.8536 
2 *217:8 *1192:A1 17.7821 
3 *217:8 *217:27 22.5357 
4 *217:27 *1178:B 13.9786 
5 *217:27 *1193:B 28.5321 
*END

*D_NET *218 0.0103739
*CONN
*I *1197:A2 I *D sky130_fd_sc_hd__a21oi_2
*I *1180:C I *D sky130_fd_sc_hd__and3_2
*I *1195:B I *D sky130_fd_sc_hd__or2_2
*I *1179:B I *D sky130_fd_sc_hd__nand2_2
*I *1194:A I *D sky130_fd_sc_hd__nor2_2
*I *1178:X O *D sky130_fd_sc_hd__and2_2
*CAP
1 *1197:A2 5.6848e-05
2 *1180:C 0
3 *1195:B 0.000271588
4 *1179:B 0.00039138
5 *1194:A 0.000554782
6 *1178:X 0
7 *218:41 0.00114194
8 *218:37 0.00123066
9 *218:8 0.00150444
10 *218:4 0.000254818
11 *1179:B *1179:A 0.000706334
12 *1194:A *1178:A 0.00026503
13 *1194:A *1198:A1 0.000100088
14 *1194:A *1408:A 5.41797e-06
15 *1194:A *453:16 5.33978e-05
16 *1194:A *525:24 4.98496e-06
17 *1195:B *1179:A 3.34366e-05
18 *1195:B *1195:A 5.49544e-05
19 *1195:B *1200:A 1.98839e-05
20 *1195:B *1200:B 4.70195e-05
21 *1195:B *426:22 0.000233801
22 *1195:B *426:26 0
23 *1195:B *453:26 0.000312323
24 *1197:A2 *1491:CLK 6.09476e-05
25 *1197:A2 *535:67 0.000123288
26 *218:8 *1180:B 1.13406e-05
27 *218:37 *1178:A 5.83304e-05
28 *218:37 *1180:B 3.47797e-05
29 *218:37 *1198:A1 4.84667e-05
30 *218:37 *1199:A 0
31 *218:37 *1199:B 0.000139907
32 *218:37 *1444:CLK 5.72433e-05
33 *218:37 *1492:RESET_B 4.46186e-06
34 *218:37 *220:12 0.000355002
35 *218:37 *426:16 0.000614046
36 *218:37 *453:16 9.74588e-05
37 *218:37 *455:43 0
38 *218:41 *1180:A 0.000523176
39 *218:41 *1199:B 3.66245e-05
40 *1145:B *1194:A 3.10819e-05
41 *1178:B *218:8 4.58194e-05
42 *1489:D *1194:A 0.000243597
43 *1492:D *218:37 8.86413e-05
44 *1497:D *1179:B 0.000443377
45 *1497:D *1195:B 2.21038e-05
46 *1498:D *1179:B 5.19842e-06
47 *83:28 *1194:A 8.58784e-05
48 *182:10 *1194:A 0
49 *182:20 *1194:A 0
*RES
1 *1178:X *218:4 9.3 
2 *218:4 *218:8 6.67857 
3 *218:8 *1194:A 25.8179 
4 *218:8 *218:37 28.8393 
5 *218:37 *218:41 10.7857 
6 *218:41 *1179:B 23.0143 
7 *218:41 *1195:B 29.3536 
8 *218:37 *1180:C 9.3 
9 *218:4 *1197:A2 19.9429 
*END

*D_NET *219 0.00167358
*CONN
*I *1196:B2 I *D sky130_fd_sc_hd__a22o_2
*I *1179:Y O *D sky130_fd_sc_hd__nand2_2
*CAP
1 *1196:B2 0.000343436
2 *1179:Y 0.000343436
3 *1196:B2 *1179:A 7.24753e-05
4 *1196:B2 *1182:B 0.00042279
5 *1196:B2 *1196:A2 4.36666e-05
6 *1196:B2 *1445:CLK 5.048e-05
7 *1196:B2 *533:85 1.21258e-05
8 *1445:GATE *1196:B2 0.000145603
9 *1497:D *1196:B2 0
10 *1498:D *1196:B2 0.000239563
*RES
1 *1179:Y *1196:B2 37.3857 
*END

*D_NET *220 0.00756449
*CONN
*I *1199:B I *D sky130_fd_sc_hd__nor2_2
*I *1198:A1 I *D sky130_fd_sc_hd__o21ai_2
*I *1181:B I *D sky130_fd_sc_hd__and2_2
*I *1180:X O *D sky130_fd_sc_hd__and3_2
*CAP
1 *1199:B 0.000902686
2 *1198:A1 0.000595868
3 *1181:B 0
4 *1180:X 0.0015339
5 *220:12 0.00122708
6 *1198:A1 *1140:B 0.00040279
7 *1198:A1 *1178:A 0.000136238
8 *1198:A1 *1198:A2 4.37171e-05
9 *1198:A1 *1575:A 4.32309e-05
10 *1198:A1 *1587:A 2.89114e-05
11 *1198:A1 *221:10 9.90431e-05
12 *1198:A1 *535:67 0.000614781
13 *1199:B *1179:A 0
14 *1199:B *1180:A 0.000228514
15 *1199:B *1199:A 0.000259052
16 *1199:B *1495:CLK 3.07696e-05
17 *220:12 *1180:B 1.63458e-05
18 *220:12 *1199:A 4.35131e-05
19 *220:12 *453:16 0
20 *220:12 *455:8 3.32631e-05
21 *220:12 *455:43 8.359e-05
22 uo_out[1] *1199:B 1.83136e-05
23 uo_out[2] *1199:B 0.000121254
24 uo_out[3] *1199:B 5.33005e-05
25 *1194:A *1198:A1 0.000100088
26 *1492:D *1199:B 0.000311095
27 *1499:D *1198:A1 5.71472e-05
28 *218:37 *1198:A1 4.84667e-05
29 *218:37 *1199:B 0.000139907
30 *218:37 *220:12 0.000355002
31 *218:41 *1199:B 3.66245e-05
*RES
1 *1180:X *220:12 27.6393 
2 *220:12 *1181:B 9.3 
3 *220:12 *1198:A1 33.4429 
4 *1180:X *1199:B 43.3857 
*END

*D_NET *221 0.00593183
*CONN
*I *1201:B I *D sky130_fd_sc_hd__or2_2
*I *1196:A2 I *D sky130_fd_sc_hd__a22o_2
*I *1182:B I *D sky130_fd_sc_hd__nand2_2
*I *1200:A I *D sky130_fd_sc_hd__nor2_2
*I *1181:X O *D sky130_fd_sc_hd__and2_2
*CAP
1 *1201:B 1.47323e-05
2 *1196:A2 0.000116926
3 *1182:B 0.000334907
4 *1200:A 0.000448912
5 *1181:X 0.000451417
6 *221:29 0.000581908
7 *221:25 0.000436156
8 *221:10 0.00119168
9 *1182:B *1182:A 7.70035e-05
10 *1182:B *1202:B 0
11 *1182:B *533:85 0.000120604
12 *1196:A2 *527:10 3.36293e-05
13 *1196:A2 *533:85 0.000107752
14 *1200:A *1195:A 0.000137561
15 *1200:A *1196:B1 0.000185118
16 *1200:A *1200:B 2.84109e-05
17 *1200:A *426:22 4.97338e-05
18 *1200:A *426:133 0
19 *1201:B *1199:A 2.84026e-05
20 *221:10 *1140:B 4.43256e-05
21 *221:10 *1196:B1 8.46829e-05
22 *221:10 *426:16 0.0001202
23 *221:10 *426:20 4.55215e-05
24 *221:25 *1196:B1 0.00018313
25 *221:25 *1199:A 5.59013e-05
26 *221:29 *1196:B1 1.07319e-05
27 *221:29 *1199:A 1.21309e-05
28 *221:29 *1202:B 5.93614e-05
29 uo_out[0] *221:10 0.00010339
30 *1195:B *1200:A 1.98839e-05
31 *1196:B2 *1182:B 0.00042279
32 *1196:B2 *1196:A2 4.36666e-05
33 *1198:A1 *221:10 9.90431e-05
34 *1492:D *221:25 4.50779e-05
35 *1497:D *1182:B 0
36 *1499:D *221:10 7.06479e-05
37 *79:34 *1182:B 5.65955e-05
38 *80:56 *1201:B 5.49489e-05
39 *82:20 *1182:B 5.49489e-05
*RES
1 *1181:X *221:10 17.7821 
2 *221:10 *1200:A 15.4964 
3 *221:10 *221:25 10.625 
4 *221:25 *221:29 7.05357 
5 *221:29 *1182:B 26.3 
6 *221:29 *1196:A2 12.0545 
7 *221:25 *1201:B 14.3357 
*END

*D_NET *222 0.0150643
*CONN
*I *1202:A I *D sky130_fd_sc_hd__and2_2
*I *1192:B1 I *D sky130_fd_sc_hd__o21ai_2
*I *1187:B1 I *D sky130_fd_sc_hd__o21ai_2
*I *1185:B1 I *D sky130_fd_sc_hd__o21ai_2
*I *1183:B I *D sky130_fd_sc_hd__nand2_2
*I *1198:B1 I *D sky130_fd_sc_hd__o21ai_2
*I *1182:Y O *D sky130_fd_sc_hd__nand2_2
*CAP
1 *1202:A 0
2 *1192:B1 0
3 *1187:B1 0.000602939
4 *1185:B1 6.45345e-05
5 *1183:B 0.000525333
6 *1198:B1 4.18575e-05
7 *1182:Y 2.65623e-05
8 *222:35 0.000746278
9 *222:33 0.00099425
10 *222:31 0.000953914
11 *222:14 0.0014036
12 *222:6 0.00066929
13 *1183:B *1183:A 0.000491435
14 *1183:B *1598:addr[11] 0.000188778
15 *1183:B *424:14 4.97207e-05
16 *1183:B *445:8 0.000121302
17 *1183:B *528:70 5.71472e-05
18 *1183:B *576:76 5.52238e-05
19 *1183:B *579:87 0.00011307
20 *1187:B1 *1486:CLK 2.11419e-05
21 *1187:B1 *577:70 0
22 *1187:B1 *586:74 0.000309469
23 *1187:B1 *588:84 0.000266136
24 *1198:B1 *418:51 8.7935e-05
25 *222:14 *1202:B 0.000130976
26 *222:14 *338:14 0
27 *222:14 *372:20 0.000621099
28 *222:31 *1405:B 0.000328515
29 *222:31 *1584:A 0
30 *222:31 *372:20 0.000288772
31 *222:31 *535:39 0
32 *222:31 *553:29 9.45051e-05
33 *222:31 *588:84 0.000217264
34 *222:33 *1192:A2 0
35 *222:33 *1344:A 0
36 *222:33 *1344:B 0
37 *222:33 *588:84 0.000203597
38 *222:35 *1185:A2 0
39 *222:35 *1344:A 0
40 *222:35 *445:8 9.71532e-05
41 *222:35 *445:64 0.000290264
42 *222:35 *588:84 7.10789e-05
43 *1101:B1 *1187:B1 0.000186276
44 *1185:A1 *1185:B1 0.00010096
45 *1189:A *1187:B1 2.11419e-05
46 *1338:B *222:31 3.79247e-05
47 *1483:D *1183:B 0.000102545
48 *1484:D *222:35 0.000152333
49 *1491:D *1198:B1 3.27359e-05
50 *1511:D *222:31 7.93165e-05
51 *1595:A *1183:B 0
52 *79:34 *222:6 0.000187042
53 *80:56 *222:31 0.000287472
54 *81:18 *222:14 0.00158244
55 *81:18 *222:31 0.000689163
56 *82:20 *222:6 0.000185118
57 *83:28 *222:14 0.000398833
58 *83:28 *222:31 0.000130846
59 *157:49 *1185:B1 0.000449546
60 *164:22 *1183:B 9.0343e-05
61 *182:10 *1198:B1 2.46211e-05
62 *211:16 *1185:B1 0.000192499
*RES
1 *1182:Y *222:6 11.0679 
2 *222:6 *222:14 12.274 
3 *222:14 *1198:B1 18.3975 
4 *222:14 *222:31 16.0469 
5 *222:31 *222:33 5.13393 
6 *222:33 *222:35 5.13393 
7 *222:35 *1183:B 34.675 
8 *222:35 *1185:B1 18.0321 
9 *222:33 *1187:B1 22.7455 
10 *222:31 *1192:B1 13.8 
11 *222:6 *1202:A 9.3 
*END

*D_NET *223 0.000689543
*CONN
*I *1185:A2 I *D sky130_fd_sc_hd__o21ai_2
*I *1184:Y O *D sky130_fd_sc_hd__nor2_2
*CAP
1 *1185:A2 0.000312531
2 *1184:Y 0.000312531
3 *1185:A2 *1175:A 5.52302e-05
4 *1185:A2 *1175:B 0
5 *1185:A2 *446:58 9.25014e-06
6 *1185:A2 *447:10 0
7 *1185:A2 *447:12 0
8 *1185:A2 *588:84 0
9 *1484:D *1185:A2 0
10 *222:35 *1185:A2 0
*RES
1 *1184:Y *1185:A2 32.5107 
*END

*D_NET *224 0.000795158
*CONN
*I *1187:A2 I *D sky130_fd_sc_hd__o21ai_2
*I *1186:Y O *D sky130_fd_sc_hd__nor2_2
*CAP
1 *1187:A2 0.000289956
2 *1186:Y 0.000289956
3 *1187:A2 *1189:B 7.83587e-05
4 *1187:A2 *1486:CLK 7.6644e-05
5 *1187:A2 *572:73 1.48545e-05
6 *1485:D *1187:A2 4.53889e-05
*RES
1 *1186:Y *1187:A2 31.9571 
*END

*D_NET *225 0.00182407
*CONN
*I *1189:B I *D sky130_fd_sc_hd__nor2_2
*I *1188:Y O *D sky130_fd_sc_hd__nor2_2
*CAP
1 *1189:B 0.000374744
2 *1188:Y 0.000374744
3 *1189:B *1341:A 0.000304998
4 *1189:B *1345:A 2.99028e-05
5 *1189:B *1486:CLK 2.22641e-05
6 *1189:B *446:58 0
7 *1186:B *1189:B 0.0001703
8 *1187:A2 *1189:B 7.83587e-05
9 *1188:B *1189:B 9.97669e-05
10 *1189:A *1189:B 1.8272e-05
11 *1486:D *1189:B 0.000318852
12 *157:49 *1189:B 3.18676e-05
13 *215:24 *1189:B 0
*RES
1 *1188:Y *1189:B 37.3679 
*END

*D_NET *226 0.00119036
*CONN
*I *1192:A2 I *D sky130_fd_sc_hd__o21ai_2
*I *1191:Y O *D sky130_fd_sc_hd__a21oi_2
*CAP
1 *1192:A2 0.000489834
2 *1191:Y 0.000489834
3 *1192:A2 *1344:B 0
4 *1192:A2 *1584:A 0
5 *1192:A2 *451:12 0.000195105
6 *1192:A2 *451:18 1.55885e-05
7 *222:33 *1192:A2 0
*RES
1 *1191:Y *1192:A2 34.2964 
*END

*D_NET *227 0.00446804
*CONN
*I *1194:B I *D sky130_fd_sc_hd__nor2_2
*I *1193:Y O *D sky130_fd_sc_hd__nor2_2
*CAP
1 *1194:B 2.30855e-05
2 *1193:Y 0.00113345
3 *227:20 0.00115653
4 *1194:B *1294:A 0
5 *227:20 *1294:A 0.00010096
6 *227:20 *1294:D 0.000125147
7 *227:20 *1338:A 5.25192e-06
8 *227:20 *1347:A 0.000122933
9 *227:20 *1410:B 5.7428e-05
10 *227:20 *1512:CLK 0
11 *227:20 *1574:A 0.000240349
12 *227:20 *1584:A 8.58705e-05
13 *227:20 *1587:A 3.09531e-05
14 *227:20 *417:36 0.000447834
15 *227:20 *417:53 0
16 *227:20 *496:12 4.13595e-05
17 *227:20 *535:39 0
18 *1145:B *227:20 0.000125057
19 *1347:B *227:20 0.000281424
20 *1348:B *227:20 4.57695e-05
21 *79:20 *227:20 2.32517e-05
22 *81:18 *227:20 0
23 *186:33 *227:20 0.000421391
*RES
1 *1193:Y *227:20 49.8357 
2 *227:20 *1194:B 9.72857 
*END

*D_NET *228 0.00187368
*CONN
*I *1196:B1 I *D sky130_fd_sc_hd__a22o_2
*I *1195:X O *D sky130_fd_sc_hd__or2_2
*CAP
1 *1196:B1 0.00037172
2 *1195:X 0.00037172
3 *1196:B1 *1199:A 7.83587e-05
4 *1196:B1 *1202:B 0.000148712
5 *1196:B1 *426:20 2.69366e-05
6 *1196:B1 *426:22 5.45307e-05
7 *1200:A *1196:B1 0.000185118
8 *1499:D *1196:B1 0.000358036
9 *221:10 *1196:B1 8.46829e-05
10 *221:25 *1196:B1 0.00018313
11 *221:29 *1196:B1 1.07319e-05
*RES
1 *1195:X *1196:B1 38.2071 
*END

*D_NET *229 0.00107856
*CONN
*I *1198:A2 I *D sky130_fd_sc_hd__o21ai_2
*I *1197:Y O *D sky130_fd_sc_hd__a21oi_2
*CAP
1 *1198:A2 0.000258195
2 *1197:Y 0.000258195
3 *1198:A2 *1491:CLK 0.0001448
4 *1198:A2 *535:67 9.87467e-05
5 *1198:A1 *1198:A2 4.37171e-05
6 *80:56 *1198:A2 0.000177821
7 *182:10 *1198:A2 9.70892e-05
*RES
1 *1197:Y *1198:A2 33.7429 
*END

*D_NET *230 0.00200075
*CONN
*I *1200:B I *D sky130_fd_sc_hd__nor2_2
*I *1199:Y O *D sky130_fd_sc_hd__nor2_2
*CAP
1 *1200:B 0.000562339
2 *1199:Y 0.000562339
3 *1200:B *1179:A 9.91086e-05
4 *1200:B *1199:A 0.00019483
5 *1200:B *426:22 5.33005e-05
6 *1200:B *426:26 0
7 *1200:B *453:26 0.000182022
8 *1195:B *1200:B 4.70195e-05
9 *1200:A *1200:B 2.84109e-05
10 *80:56 *1200:B 0.000271381
*RES
1 *1199:Y *1200:B 37.1536 
*END

*D_NET *231 0.00122155
*CONN
*I *1202:B I *D sky130_fd_sc_hd__and2_2
*I *1201:X O *D sky130_fd_sc_hd__or2_2
*CAP
1 *1202:B 0.000282924
2 *1201:X 0.000282924
3 *1202:B *1182:A 0.000267941
4 *1202:B *372:20 4.46618e-05
5 *1182:B *1202:B 0
6 *1196:B1 *1202:B 0.000148712
7 *1499:D *1202:B 4.04691e-06
8 *221:29 *1202:B 5.93614e-05
9 *222:14 *1202:B 0.000130976
*RES
1 *1201:X *1202:B 34.4036 
*END

*D_NET *232 0.000193139
*CONN
*I *1204:B I *D sky130_fd_sc_hd__xnor2_2
*I *1203:Y O *D sky130_fd_sc_hd__nor2_2
*CAP
1 *1204:B 4.85225e-05
2 *1203:Y 4.85225e-05
3 *1204:B *1206:A 9.60939e-05
*RES
1 *1203:Y *1204:B 19.5464 
*END

*D_NET *233 0.000488265
*CONN
*I *1206:B I *D sky130_fd_sc_hd__xnor2_2
*I *1205:Y O *D sky130_fd_sc_hd__nor2_2
*CAP
1 *1206:B 0.00017837
2 *1205:Y 0.00017837
3 *1206:B *1205:A 5.62995e-05
4 *1206:B *1322:S0 1.21289e-05
5 *1206:B *1332:A2 0
6 *1206:B *1460:RESET_B 2.00751e-05
7 *1206:B *440:26 6.05161e-06
8 *1462:D *1206:B 3.69697e-05
*RES
1 *1205:Y *1206:B 30.6 
*END

*D_NET *234 0.00188028
*CONN
*I *1208:B I *D sky130_fd_sc_hd__xnor2_2
*I *1207:Y O *D sky130_fd_sc_hd__nor2_2
*CAP
1 *1208:B 0.000442342
2 *1207:Y 0.000442342
3 *1208:B *1207:A 0.00030899
4 *1208:B *1207:B 2.90548e-05
5 *1208:B *1458:RESET_B 0
6 *1208:B *437:10 5.98502e-05
7 *1208:B *438:22 3.79467e-05
8 *1208:B *466:25 0.000227117
9 *1208:B *530:96 0
10 *1208:B *588:22 0.000332637
*RES
1 *1207:Y *1208:B 37.5643 
*END

*D_NET *235 0.0028952
*CONN
*I *1210:B I *D sky130_fd_sc_hd__xnor2_2
*I *1209:Y O *D sky130_fd_sc_hd__nor2_2
*CAP
1 *1210:B 0.000417352
2 *1209:Y 0.000417352
3 *1210:B *1094:A 2.32672e-05
4 *1210:B *1096:A 0
5 *1210:B *1209:A 0.000175519
6 *1210:B *1209:B 1.24368e-05
7 *1210:B *1210:A 5.5782e-05
8 *1210:B *1212:B 0.000919214
9 *1090:C *1210:B 0.000227014
10 *1093:B *1210:B 0.000317437
11 *1458:D *1210:B 0
12 *142:14 *1210:B 0.00014209
13 *142:16 *1210:B 0.000187733
14 *144:29 *1210:B 0
*RES
1 *1209:Y *1210:B 42.5286 
*END

*D_NET *236 0.00288452
*CONN
*I *1212:B I *D sky130_fd_sc_hd__xnor2_2
*I *1211:Y O *D sky130_fd_sc_hd__nor2_2
*CAP
1 *1212:B 0.000495557
2 *1211:Y 0.000495557
3 *1212:B *1090:A 0.000371526
4 *1212:B *1093:A 4.35131e-05
5 *1212:B *1094:A 0.000167992
6 *1212:B *1211:B 0.00014643
7 *1212:B *1213:A 0.000177234
8 *1212:B *1214:B 6.75007e-05
9 *1212:B *1458:CLK 0
10 *1210:B *1212:B 0.000919214
11 *1458:D *1212:B 0
*RES
1 *1211:Y *1212:B 44.7607 
*END

*D_NET *237 0.00144003
*CONN
*I *1214:B I *D sky130_fd_sc_hd__xnor2_2
*I *1213:Y O *D sky130_fd_sc_hd__nor2_2
*CAP
1 *1214:B 0.000482287
2 *1213:Y 0.000482287
3 *1214:B *1213:A 8.86354e-05
4 *1214:B *1216:A 0
5 *1214:B *1216:B 0.000319323
6 *1214:B *1217:B 0
7 *1214:B *1458:CLK 0
8 *1214:B *427:115 0
9 *1214:B *427:117 0
10 *1214:B *427:146 0
11 *1212:B *1214:B 6.75007e-05
12 *1457:D *1214:B 0
*RES
1 *1213:Y *1214:B 36.5286 
*END

*D_NET *238 0.00119461
*CONN
*I *1216:B I *D sky130_fd_sc_hd__xnor2_2
*I *1215:Y O *D sky130_fd_sc_hd__nor2_2
*CAP
1 *1216:B 0.00018943
2 *1215:Y 0.00018943
3 *1216:B *1214:A 0.00019415
4 *1216:B *1216:A 0
5 *1216:B *1217:A 2.50479e-05
6 *1216:B *1217:B 0.000104614
7 *1216:B *1218:B 0.000172616
8 *1214:B *1216:B 0.000319323
*RES
1 *1215:Y *1216:B 34.4036 
*END

*D_NET *239 0.00174213
*CONN
*I *1218:B I *D sky130_fd_sc_hd__xnor2_2
*I *1217:Y O *D sky130_fd_sc_hd__nor2_2
*CAP
1 *1218:B 0.000578491
2 *1217:Y 0.000578491
3 *1218:B *1214:A 0.000219401
4 *1218:B *1216:A 0
5 *1218:B *1217:A 0.00016522
6 *1218:B *1453:CLK 0
7 *1218:B *530:96 2.79092e-05
8 *1216:B *1218:B 0.000172616
9 *1453:D *1218:B 0
*RES
1 *1217:Y *1218:B 39.2786 
*END

*D_NET *240 0.000540084
*CONN
*I *1220:B I *D sky130_fd_sc_hd__xnor2_2
*I *1219:Y O *D sky130_fd_sc_hd__nor2_2
*CAP
1 *1220:B 0.000165973
2 *1219:Y 0.000165973
3 *1220:B *1220:A 0
4 *1220:B *1451:CLK 1.69115e-05
5 *1220:B *436:8 8.00806e-05
6 *1220:B *588:22 0.000111146
7 *1451:D *1220:B 0
*RES
1 *1219:Y *1220:B 31.6714 
*END

*D_NET *241 0.00211061
*CONN
*I *1222:B I *D sky130_fd_sc_hd__xnor2_2
*I *1221:Y O *D sky130_fd_sc_hd__nor2_2
*CAP
1 *1222:B 0.000525062
2 *1221:Y 0.000525062
3 *1222:B *1219:B 0
4 *1222:B *1221:A 9.80173e-05
5 *1222:B *1222:A 0.000526
6 *1222:B *1322:S0 9.41642e-05
7 *1222:B *1449:CLK 0
8 *1222:B *1560:A 0.000208513
9 *1222:B *435:10 7.6644e-05
10 *1449:D *1222:B 5.71472e-05
*RES
1 *1221:Y *1222:B 39.725 
*END

*D_NET *242 0.00349953
*CONN
*I *1224:B I *D sky130_fd_sc_hd__xnor2_2
*I *1223:Y O *D sky130_fd_sc_hd__nor2_2
*CAP
1 *1224:B 0
2 *1223:Y 0.000679848
3 *242:20 0.000679848
4 *242:20 *1223:B 0.00055214
5 *242:20 *1224:A 9.71197e-05
6 *242:20 *1232:B 0.00033814
7 *242:20 *1322:A0 0.000270045
8 *242:20 *1322:A1 9.71197e-05
9 *242:20 *1322:A2 1.5424e-05
10 *242:20 *1322:S1 9.60875e-05
11 *242:20 *1327:C 7.80929e-05
12 *242:20 *1462:RESET_B 7.54415e-05
13 *242:20 *1464:CLK 1.27126e-05
14 *242:20 *427:46 0
15 *242:20 *432:22 9.41642e-05
16 *242:20 *433:14 7.19209e-05
17 *242:20 *434:16 0
18 *242:20 *434:20 0.000184745
19 *242:20 *589:93 4.8736e-05
20 *242:20 *589:120 0.000107944
*RES
1 *1223:Y *242:20 45.5321 
2 *242:20 *1224:B 9.3 
*END

*D_NET *243 0.000711944
*CONN
*I *1226:B I *D sky130_fd_sc_hd__xnor2_2
*I *1225:Y O *D sky130_fd_sc_hd__nor2_2
*CAP
1 *1226:B 0.000139083
2 *1225:Y 0.000139083
3 *1226:B *1225:A 4.88637e-05
4 *1226:B *1225:B 5.52238e-05
5 *1226:B *1227:B 0.000144498
6 *1226:B *1228:B 0.000185193
*RES
1 *1225:Y *1226:B 22.4214 
*END

*D_NET *244 0.00236751
*CONN
*I *1228:B I *D sky130_fd_sc_hd__xnor2_2
*I *1227:Y O *D sky130_fd_sc_hd__nor2_2
*CAP
1 *1228:B 0.000602629
2 *1227:Y 0.000602629
3 *1228:B *1228:A 9.87617e-05
4 *1228:B *1459:RESET_B 0
5 *1228:B *1561:A 7.83587e-05
6 *1228:B *429:16 9.22015e-05
7 *1228:B *430:20 0.00027068
8 *1228:B *432:14 0.00012401
9 *1228:B *589:130 0
10 *1226:B *1228:B 0.000185193
11 *1459:D *1228:B 0.000313051
*RES
1 *1227:Y *1228:B 40.8143 
*END

*D_NET *245 0.00200119
*CONN
*I *1230:B I *D sky130_fd_sc_hd__xnor2_2
*I *1229:Y O *D sky130_fd_sc_hd__nor2_2
*CAP
1 *1230:B 0.00055446
2 *1229:Y 0.00055446
3 *1230:B *1229:B 0.000179107
4 *1230:B *427:10 0
5 *1230:B *427:14 0
6 *1230:B *430:20 7.7863e-05
7 *1230:B *430:54 0.000178752
8 *1230:B *581:100 5.52302e-05
9 *602:GATE *1230:B 0.000166955
10 *1173:B *1230:B 3.2476e-05
11 *1292:A1 *1230:B 0.000115315
12 *1359:B1 *1230:B 1.90936e-05
13 *211:48 *1230:B 6.74751e-05
*RES
1 *1229:Y *1230:B 40.1 
*END

*D_NET *246 0.00124717
*CONN
*I *1232:B I *D sky130_fd_sc_hd__xnor2_2
*I *1231:Y O *D sky130_fd_sc_hd__nor2_2
*CAP
1 *1232:B 0.000170327
2 *1231:Y 0.000170327
3 *1232:B *1223:B 1.58619e-05
4 *1232:B *1231:B 7.31875e-05
5 *1232:B *1327:C 0.000362103
6 *1232:B *1599:clk 3.43988e-06
7 *1232:B *594:46 0.000113778
8 *242:20 *1232:B 0.00033814
*RES
1 *1231:Y *1232:B 34.1 
*END

*D_NET *247 0.00239274
*CONN
*I *1234:B I *D sky130_fd_sc_hd__xnor2_2
*I *1233:Y O *D sky130_fd_sc_hd__nor2_2
*CAP
1 *1234:B 0.000849861
2 *1233:Y 0.000849861
3 *1234:B *1126:C1 0.000101239
4 *1234:B *1233:A 3.4879e-05
5 *1234:B *1233:B 0
6 *1234:B *1234:A 0.000183015
7 *1234:B *1319:A0 0
8 *1234:B *1447:D 0.000102545
9 *1234:B *1456:RESET_B 0.000125724
10 *1234:B *1459:RESET_B 7.25338e-05
11 *1234:B *335:26 3.47641e-06
12 *1234:B *426:176 0
13 *1234:B *427:10 0
14 *1234:B *584:82 9.20464e-06
15 *1234:B *593:83 0
16 *1281:A1 *1234:B 6.05161e-06
17 *1281:B1 *1234:B 5.43439e-05
18 *1319:S *1234:B 0
*RES
1 *1233:Y *1234:B 41.9036 
*END

*D_NET *248 0.000524175
*CONN
*I *1242:A2 I *D sky130_fd_sc_hd__a22o_2
*I *1235:X O *D sky130_fd_sc_hd__or2_2
*CAP
1 *1242:A2 0.000122481
2 *1235:X 0.000122481
3 *1242:A2 *1066:A 0
4 *1242:A2 *1522:A 2.7505e-05
5 *1242:A2 *575:26 0
6 *1242:A2 *586:30 4.33002e-05
7 *1242:A2 *592:50 4.46186e-06
8 *1241:C1 *1242:A2 7.13226e-06
9 *131:39 *1242:A2 1.58163e-05
10 *132:12 *1242:A2 0.000172233
11 *132:18 *1242:A2 8.7636e-06
*RES
1 *1235:X *1242:A2 30.533 
*END

*D_NET *249 0.00139148
*CONN
*I *1237:C1 I *D sky130_fd_sc_hd__o221a_2
*I *1236:X O *D sky130_fd_sc_hd__a22o_2
*CAP
1 *1237:C1 0.000392806
2 *1236:X 0.000392806
3 *1237:C1 *1469:RESET_B 0
4 *1237:C1 *459:12 0.000354105
5 *1237:C1 *461:16 0.000161769
6 *1237:C1 *462:10 5.07157e-05
7 *1237:C1 *545:18 3.92757e-05
*RES
1 *1236:X *1237:C1 35.5107 
*END

*D_NET *250 0.00078941
*CONN
*I *1238:C1 I *D sky130_fd_sc_hd__a221o_2
*I *1237:X O *D sky130_fd_sc_hd__o221a_2
*CAP
1 *1238:C1 0.000240045
2 *1237:X 0.000240045
3 *1238:C1 *1238:A1 0.000149419
4 *1238:C1 *1240:C1 2.4461e-05
5 *1238:C1 *463:12 3.15645e-05
6 *1237:A2 *1238:C1 7.77652e-05
7 *1237:B1 *1238:C1 2.61099e-05
*RES
1 *1237:X *1238:C1 31.725 
*END

*D_NET *251 0.00149308
*CONN
*I *1239:C1 I *D sky130_fd_sc_hd__o221a_2
*I *1238:X O *D sky130_fd_sc_hd__a221o_2
*CAP
1 *1239:C1 0.000398981
2 *1238:X 0.000398981
3 *1239:C1 *1069:A 1.73088e-05
4 *1239:C1 *1238:A1 0.00010096
5 *1239:C1 *1238:B2 0.000181947
6 *1239:C1 *464:8 0.000183298
7 *1237:B1 *1239:C1 8.7636e-06
8 *1238:B1 *1239:C1 5.17952e-05
9 *1239:B1 *1239:C1 1.28809e-05
10 *127:10 *1239:C1 4.75359e-05
11 *128:6 *1239:C1 9.06254e-05
*RES
1 *1238:X *1239:C1 26.2786 
*END

*D_NET *252 0.000615305
*CONN
*I *1240:C1 I *D sky130_fd_sc_hd__a221o_2
*I *1239:X O *D sky130_fd_sc_hd__o221a_2
*CAP
1 *1240:C1 0.000217735
2 *1239:X 0.000217735
3 *1240:C1 *1073:A 0
4 *1240:C1 *1238:A1 2.30116e-06
5 *1240:C1 *1239:B2 1.14672e-05
6 *1240:C1 *1240:A1 2.87041e-05
7 *1240:C1 *463:12 5.48376e-05
8 *1238:B1 *1240:C1 5.52302e-05
9 *1238:C1 *1240:C1 2.4461e-05
10 *1240:B1 *1240:C1 2.83284e-06
*RES
1 *1239:X *1240:C1 30.9929 
*END

*D_NET *253 0.000839455
*CONN
*I *1242:B1 I *D sky130_fd_sc_hd__a22o_2
*I *1240:X O *D sky130_fd_sc_hd__a221o_2
*CAP
1 *1242:B1 0.000262917
2 *1240:X 0.000262917
3 *1242:B1 *1073:A 1.08359e-05
4 *1242:B1 *1235:A 0.000121418
5 *1242:B1 *1241:A1 6.05161e-06
6 *131:39 *1242:B1 2.72887e-05
7 *132:12 *1242:B1 0.000148027
*RES
1 *1240:X *1242:B1 31.725 
*END

*D_NET *254 0.000140507
*CONN
*I *1242:B2 I *D sky130_fd_sc_hd__a22o_2
*I *1241:X O *D sky130_fd_sc_hd__o221a_2
*CAP
1 *1242:B2 1.69531e-05
2 *1241:X 1.69531e-05
3 *1242:B2 *1235:A 5.33005e-05
4 *1241:B1 *1242:B2 5.33005e-05
*RES
1 *1241:X *1242:B2 19.1357 
*END

*D_NET *255 0.00449134
*CONN
*I *1246:A1 I *D sky130_fd_sc_hd__a21o_2
*I *1247:B I *D sky130_fd_sc_hd__nand3_2
*I *1252:A I *D sky130_fd_sc_hd__nand2_2
*I *1253:A1 I *D sky130_fd_sc_hd__a21boi_2
*I *1244:Y O *D sky130_fd_sc_hd__nand2_2
*CAP
1 *1246:A1 0.000145359
2 *1247:B 0
3 *1252:A 0.000118968
4 *1253:A1 0.000153138
5 *1244:Y 0.000489065
6 *255:24 0.000326483
7 *255:20 0.000465533
8 *255:12 0.00104558
9 *1246:A1 *419:187 5.64118e-05
10 *1246:A1 *419:200 0.000199223
11 *1252:A *1246:B1 1.85844e-05
12 *1252:A *1252:B 6.2169e-06
13 *1252:A *1253:A2 1.08032e-05
14 *1252:A *1537:A 0.000175163
15 *1253:A1 *1246:B1 7.80714e-06
16 *1253:A1 *1250:B 1.74352e-05
17 *1253:A1 *1253:A2 0.000144412
18 *1253:A1 *1436:A1 0
19 *1253:A1 *263:30 9.71197e-05
20 *255:12 *1245:A 2.24646e-05
21 *255:12 *1245:B 3.06406e-05
22 *255:12 *468:8 9.90367e-05
23 *255:12 *468:10 0.000114759
24 *255:12 *468:24 3.34295e-05
25 *255:12 *531:31 7.83587e-05
26 *255:20 *1247:A 0
27 *255:20 *1248:B 1.17567e-05
28 *255:20 *1248:C 0.000112737
29 *255:24 *1537:A 5.52302e-05
30 *255:24 *467:53 9.90367e-05
31 uio_oe[0] *1246:A1 0
32 uio_oe[1] *1252:A 8.39e-05
33 uio_oe[3] *1253:A1 0.000111348
34 uio_out[7] *1252:A 2.84026e-05
35 *1474:D *255:12 8.89117e-05
36 *1474:D *255:20 4.40234e-05
*RES
1 *1244:Y *255:12 27.2464 
2 *255:12 *255:20 5.92857 
3 *255:20 *255:24 5.85714 
4 *255:24 *1253:A1 17.5321 
5 *255:24 *1252:A 17.1929 
6 *255:20 *1247:B 9.3 
7 *255:12 *1246:A1 21.4607 
*END

*D_NET *256 0.00261008
*CONN
*I *1246:A2 I *D sky130_fd_sc_hd__a21o_2
*I *1247:C I *D sky130_fd_sc_hd__nand3_2
*I *1245:X O *D sky130_fd_sc_hd__or2_2
*CAP
1 *1246:A2 0
2 *1247:C 0.000300167
3 *1245:X 0.000205504
4 *256:10 0.000505671
5 *1247:C *1246:B1 0.00027218
6 *1247:C *1248:B 5.09271e-05
7 *1247:C *419:200 4.10926e-05
8 *1247:C *531:10 0.000174812
9 *256:10 *1245:A 5.33005e-05
10 *256:10 *419:200 0.000567893
11 uio_out[5] *256:10 0.000156903
12 uio_out[6] *256:10 0.000271345
13 uio_out[7] *1247:C 1.02821e-05
*RES
1 *1245:X *256:10 16.55 
2 *256:10 *1247:C 25.1036 
3 *256:10 *1246:A2 9.3 
*END

*D_NET *257 0.000624767
*CONN
*I *1248:B I *D sky130_fd_sc_hd__and3_2
*I *1246:X O *D sky130_fd_sc_hd__a21o_2
*CAP
1 *1248:B 0.000236465
2 *1246:X 0.000236465
3 *1248:B *1248:C 7.20217e-06
4 *1248:B *419:200 7.6644e-05
5 *1247:C *1248:B 5.09271e-05
6 *1474:D *1248:B 5.30637e-06
7 *255:20 *1248:B 1.17567e-05
*RES
1 *1246:X *1248:B 30.9393 
*END

*D_NET *258 0.00187133
*CONN
*I *1248:C I *D sky130_fd_sc_hd__and3_2
*I *1252:B I *D sky130_fd_sc_hd__nand2_2
*I *1253:A2 I *D sky130_fd_sc_hd__a21boi_2
*I *1247:Y O *D sky130_fd_sc_hd__nand3_2
*CAP
1 *1248:C 0.000147978
2 *1252:B 0.000110712
3 *1253:A2 0.000184246
4 *1247:Y 0.000218876
5 *258:8 0.000365856
6 *1252:B *1254:B1 0
7 *1253:A2 *1250:B 3.18676e-05
8 *1253:A2 *467:42 0.000176234
9 *258:8 *1537:A 0.000140088
10 uio_oe[1] *1252:B 0.00015234
11 uio_oe[3] *1253:A2 1.59689e-05
12 *1243:B *1253:A2 4.5795e-05
13 *1248:B *1248:C 7.20217e-06
14 *1252:A *1252:B 6.2169e-06
15 *1252:A *1253:A2 1.08032e-05
16 *1253:A1 *1253:A2 0.000144412
17 *255:20 *1248:C 0.000112737
*RES
1 *1247:Y *258:8 15.1571 
2 *258:8 *1253:A2 18.2286 
3 *258:8 *1252:B 16.05 
4 *1247:Y *1248:C 21.5107 
*END

*D_NET *259 0.00795275
*CONN
*I *1251:B I *D sky130_fd_sc_hd__xnor2_2
*I *1283:A_N I *D sky130_fd_sc_hd__nand2b_2
*I *1250:B I *D sky130_fd_sc_hd__nor2_2
*I *1288:B I *D sky130_fd_sc_hd__xnor2_2
*I *1263:B I *D sky130_fd_sc_hd__nor2_2
*I *1262:B I *D sky130_fd_sc_hd__and2_2
*I *1284:B I *D sky130_fd_sc_hd__xnor2_2
*I *1249:X O *D sky130_fd_sc_hd__and2b_2
*CAP
1 *1251:B 9.68241e-05
2 *1283:A_N 0
3 *1250:B 0.000415276
4 *1288:B 0.000148085
5 *1263:B 8.0086e-05
6 *1262:B 0
7 *1284:B 0.000616933
8 *1249:X 4.02044e-05
9 *259:50 0.000540108
10 *259:48 0.000170362
11 *259:23 0.000213303
12 *259:6 0.000693564
13 *1250:B *1289:B1 1.46883e-05
14 *1250:B *1291:A 6.01582e-05
15 *1250:B *263:30 4.63919e-05
16 *1250:B *467:42 6.05161e-06
17 *1263:B *1264:B 0.000117196
18 *1263:B *1270:B 0
19 *1263:B *471:10 1.02504e-05
20 *1263:B *471:16 3.80445e-05
21 *1263:B *579:56 3.34295e-05
22 *1284:B *1481:CLK 0.000404888
23 *1284:B *472:51 0.000165816
24 *1284:B *475:6 4.27935e-05
25 *1284:B *475:14 0.00105296
26 *1284:B *587:70 0.000122494
27 *1288:B *419:35 0.0001399
28 *1288:B *472:51 6.05161e-06
29 *259:23 *1264:B 0.000214519
30 *259:23 *471:22 5.7061e-05
31 *259:23 *579:56 0.000329486
32 *259:48 *1283:B 0.000143375
33 *259:48 *419:35 0.000103031
34 *259:48 *472:51 0.00035406
35 *259:50 *291:8 9.60875e-05
36 *259:50 *419:35 0.000260574
37 *259:50 *472:51 7.35819e-05
38 uio_oe[3] *1250:B 0
39 uio_oe[5] *1251:B 0.000174812
40 *1243:B *1250:B 0.000311608
41 *1243:B *1251:B 0
42 *1243:B *1288:B 1.21258e-05
43 *1249:A_N *1284:B 0.000182694
44 *1249:A_N *259:6 4.18895e-05
45 *1253:A1 *1250:B 1.74352e-05
46 *1253:A2 *1250:B 3.18676e-05
47 *1481:D *1284:B 0.000272682
*RES
1 *1249:X *259:6 9.83571 
2 *259:6 *1284:B 24.675 
3 *259:6 *259:23 8.875 
4 *259:23 *1262:B 13.8 
5 *259:23 *1263:B 16.05 
6 *1284:B *259:48 13.1393 
7 *259:48 *259:50 2.58929 
8 *259:50 *1288:B 10.6571 
9 *259:50 *1250:B 26.2464 
10 *259:48 *1283:A_N 9.3 
11 *1288:B *1251:B 29.85 
*END

*D_NET *260 0.000776849
*CONN
*I *1260:A1 I *D sky130_fd_sc_hd__o21ai_2
*I *1259:A I *D sky130_fd_sc_hd__or3_2
*I *1250:Y O *D sky130_fd_sc_hd__nor2_2
*CAP
1 *1260:A1 0
2 *1259:A 0.000103417
3 *1250:Y 3.39029e-05
4 *260:6 0.00013732
5 *1259:A *1259:C 3.08664e-05
6 *1259:A *1260:B1 0
7 *1259:A *1436:A1 0.000175519
8 *1259:A *590:83 0.000141734
9 *260:6 *263:30 2.59355e-05
10 uio_oe[2] *1259:A 0.000128154
*RES
1 *1250:Y *260:6 9.83571 
2 *260:6 *1259:A 21.9071 
3 *260:6 *1260:A1 9.3 
*END

*D_NET *261 0.00114497
*CONN
*I *1254:A1 I *D sky130_fd_sc_hd__o21ai_2
*I *1253:B1_N I *D sky130_fd_sc_hd__a21boi_2
*I *1251:Y O *D sky130_fd_sc_hd__xnor2_2
*CAP
1 *1254:A1 0.000180241
2 *1253:B1_N 2.84912e-05
3 *1251:Y 0.000130804
4 *261:8 0.000339536
5 *1253:B1_N *1255:A 5.52302e-05
6 *1254:A1 *1254:B1 0.000137557
7 *1254:A1 *1255:B 0.000155718
8 *261:8 *1255:B 0.000117388
9 uio_oe[4] *1254:A1 0
10 uio_oe[4] *261:8 0
11 *1243:B *261:8 0
*RES
1 *1251:Y *261:8 16.6571 
2 *261:8 *1253:B1_N 14.3357 
3 *261:8 *1254:A1 18.4786 
*END

*D_NET *262 0.000617579
*CONN
*I *1254:A2 I *D sky130_fd_sc_hd__o21ai_2
*I *1252:Y O *D sky130_fd_sc_hd__nand2_2
*CAP
1 *1254:A2 0.000235454
2 *1252:Y 0.000235454
3 uio_out[7] *1254:A2 0.00014667
*RES
1 *1252:Y *1254:A2 23.2786 
*END

*D_NET *263 0.0031114
*CONN
*I *1260:A2 I *D sky130_fd_sc_hd__o21ai_2
*I *1259:B I *D sky130_fd_sc_hd__or3_2
*I *1255:A I *D sky130_fd_sc_hd__nor2_2
*I *1253:Y O *D sky130_fd_sc_hd__a21boi_2
*CAP
1 *1260:A2 0
2 *1259:B 7.61836e-05
3 *1255:A 0.000408609
4 *1253:Y 0.000727921
5 *263:30 0.000395496
6 *1255:A *1433:A1_N 0
7 *1255:A *1555:A 0
8 *1255:A *467:10 0.000140933
9 *1255:A *467:42 0.000482607
10 *1255:A *530:6 0.000255068
11 *1255:A *590:83 5.71472e-05
12 *263:30 *531:16 1.32056e-05
13 uio_oe[2] *1259:B 0.000151613
14 uio_oe[6] *1255:A 0
15 *1250:B *263:30 4.63919e-05
16 *1253:A1 *263:30 9.71197e-05
17 *1253:B1_N *1255:A 5.52302e-05
18 *1475:D *1255:A 0.000177941
19 *260:6 *263:30 2.59355e-05
*RES
1 *1253:Y *1255:A 38.5107 
2 *1253:Y *263:30 14.3893 
3 *263:30 *1259:B 20.2464 
4 *263:30 *1260:A2 9.3 
*END

*D_NET *264 0.0016837
*CONN
*I *1255:B I *D sky130_fd_sc_hd__nor2_2
*I *1254:Y O *D sky130_fd_sc_hd__o21ai_2
*CAP
1 *1255:B 0.000515548
2 *1254:Y 0.000515548
3 *1255:B *1593:A 4.60387e-05
4 *1255:B *469:8 0
5 *1255:B *590:83 0.000258024
6 uio_oe[5] *1255:B 7.54343e-05
7 *1254:A1 *1255:B 0.000155718
8 *261:8 *1255:B 0.000117388
*RES
1 *1254:Y *1255:B 39.475 
*END

*D_NET *265 0.0045182
*CONN
*I *1257:A_N I *D sky130_fd_sc_hd__nand2b_2
*I *1270:B I *D sky130_fd_sc_hd__or2_2
*I *1269:B I *D sky130_fd_sc_hd__nand2_2
*I *1275:B I *D sky130_fd_sc_hd__nor2_2
*I *1258:B I *D sky130_fd_sc_hd__xnor2_2
*I *1256:X O *D sky130_fd_sc_hd__and2_2
*CAP
1 *1257:A_N 0.000119874
2 *1270:B 0.000185009
3 *1269:B 6.00507e-05
4 *1275:B 0.000266356
5 *1258:B 0.0001478
6 *1256:X 0.000173894
7 *265:16 0.00049283
8 *265:12 0.000258598
9 *265:10 0.000358902
10 *1257:A_N *1257:B 5.85498e-05
11 *1257:A_N *1265:A2 0
12 *1257:A_N *468:10 4.46186e-06
13 *1257:A_N *468:24 4.02462e-05
14 *1257:A_N *531:31 0
15 *1258:B *267:6 9.60875e-05
16 *1258:B *590:99 4.27338e-05
17 *1269:B *1264:A 4.08637e-05
18 *1269:B *1273:C 2.93922e-05
19 *1269:B *590:99 0.000137983
20 *1270:B *1264:A 0.000195562
21 *1270:B *1272:A1 6.91157e-05
22 *1270:B *1272:A2 1.41029e-05
23 *1270:B *1273:C 0
24 *1270:B *270:10 4.56437e-05
25 *1270:B *579:56 0
26 *1275:B *1274:B 0
27 *1275:B *471:22 0
28 *1275:B *475:32 1.83249e-05
29 *1275:B *526:139 0
30 *265:10 *1264:A 3.06511e-05
31 *265:10 *1273:C 0
32 *265:10 *457:42 3.52971e-05
33 *265:10 *468:24 0
34 *265:16 *1264:A 0.000394969
35 *265:16 *1264:B 5.33005e-05
36 *265:16 *267:6 4.72917e-05
37 *265:16 *590:99 0.000691785
38 *1263:B *1270:B 0
39 *1266:B1 *1275:B 0.000307566
40 *194:68 *265:10 0.00010096
*RES
1 *1256:X *265:10 16.6929 
2 *265:10 *265:12 4.5 
3 *265:12 *265:16 7.125 
4 *265:16 *1258:B 10.2464 
5 *265:16 *1275:B 23.2821 
6 *265:12 *1269:B 11.0857 
7 *265:10 *1270:B 18.175 
8 *1258:B *1257:A_N 30.1536 
*END

*D_NET *266 0.000722872
*CONN
*I *1265:A1 I *D sky130_fd_sc_hd__a21oi_2
*I *1266:A1 I *D sky130_fd_sc_hd__a31o_2
*I *1257:Y O *D sky130_fd_sc_hd__nand2b_2
*CAP
1 *1265:A1 4.11976e-05
2 *1266:A1 4.27093e-05
3 *1257:Y 4.61082e-05
4 *266:8 0.000130015
5 *1265:A1 *526:139 6.87574e-05
6 *1265:A1 *579:40 9.80173e-05
7 *1266:A1 *1265:A2 3.17148e-05
8 *1266:A1 *1266:A2 0.000103267
9 *1266:A1 *579:40 0.000104974
10 *266:8 *269:17 1.24368e-05
11 *266:8 *526:139 3.18676e-05
12 *1266:B1 *1266:A1 1.18064e-05
*RES
1 *1257:Y *266:8 10.2643 
2 *266:8 *1266:A1 19.9429 
3 *266:8 *1265:A1 10.6571 
*END

*D_NET *267 0.00308693
*CONN
*I *1260:B1 I *D sky130_fd_sc_hd__o21ai_2
*I *1259:C I *D sky130_fd_sc_hd__or3_2
*I *1258:Y O *D sky130_fd_sc_hd__xnor2_2
*CAP
1 *1260:B1 0.000173521
2 *1259:C 0.000123326
3 *1258:Y 0.000625303
4 *267:6 0.00092215
5 *1259:C *1261:B 5.68722e-05
6 *1259:C *590:83 4.3516e-05
7 *1260:B1 *1436:A1 0
8 *1260:B1 *419:176 5.54856e-05
9 *1260:B1 *419:187 0.000189448
10 *267:6 *1257:B 8.76257e-05
11 *267:6 *1261:B 8.27532e-05
12 *267:6 *1476:CLK 2.59355e-05
13 *267:6 *470:8 5.33005e-05
14 *267:6 *470:38 0.000186669
15 *267:6 *590:83 0.000124873
16 *267:6 *590:99 0.000144455
17 *1258:B *267:6 9.60875e-05
18 *1259:A *1259:C 3.08664e-05
19 *1259:A *1260:B1 0
20 *1476:D *267:6 1.74503e-05
21 *265:16 *267:6 4.72917e-05
*RES
1 *1258:Y *267:6 22.1571 
2 *267:6 *1259:C 11.9071 
3 *267:6 *1260:B1 21.9964 
*END

*D_NET *268 0.000794229
*CONN
*I *1261:B I *D sky130_fd_sc_hd__and3_2
*I *1259:X O *D sky130_fd_sc_hd__or3_2
*CAP
1 *1261:B 0.000205325
2 *1259:X 0.000205325
3 *1261:B *419:176 7.57946e-05
4 *1261:B *419:187 0.000125731
5 *1259:C *1261:B 5.68722e-05
6 *1476:D *1261:B 4.24261e-05
7 *267:6 *1261:B 8.27532e-05
*RES
1 *1259:X *1261:B 31.5107 
*END

*D_NET *269 0.00263357
*CONN
*I *1266:A2 I *D sky130_fd_sc_hd__a31o_2
*I *1265:A2 I *D sky130_fd_sc_hd__a21oi_2
*I *1261:C I *D sky130_fd_sc_hd__and3_2
*I *1260:Y O *D sky130_fd_sc_hd__o21ai_2
*CAP
1 *1266:A2 6.00585e-05
2 *1265:A2 0.000150863
3 *1261:C 0
4 *1260:Y 0.000140603
5 *269:17 0.0006028
6 *269:8 0.000532482
7 *1265:A2 *1257:B 2.22043e-05
8 *1266:A2 *468:10 0
9 *269:8 *1261:A 5.7661e-06
10 *269:8 *531:16 3.42426e-05
11 *269:8 *531:31 2.18985e-05
12 *269:17 *1244:A 9.41642e-05
13 *269:17 *526:139 0.000119898
14 *269:17 *531:31 0.000661174
15 *1257:A_N *1265:A2 0
16 *1266:A1 *1265:A2 3.17148e-05
17 *1266:A1 *1266:A2 0.000103267
18 *1266:B1 *1265:A2 2.71755e-05
19 *1476:D *269:17 1.28171e-05
20 *266:8 *269:17 1.24368e-05
*RES
1 *1260:Y *269:8 11.8 
2 *269:8 *1261:C 9.3 
3 *269:8 *269:17 14.0714 
4 *269:17 *1265:A2 15.9071 
5 *269:17 *1266:A2 15.1393 
*END

*D_NET *270 0.00323723
*CONN
*I *1272:A1 I *D sky130_fd_sc_hd__o211a_2
*I *1271:B1 I *D sky130_fd_sc_hd__a211o_2
*I *1264:A I *D sky130_fd_sc_hd__or2_2
*I *1262:X O *D sky130_fd_sc_hd__and2_2
*CAP
1 *1272:A1 0.000345363
2 *1271:B1 0
3 *1264:A 0.000239839
4 *1262:X 0.000245332
5 *270:10 0.000258328
6 *270:8 0.000609184
7 *1264:A *1273:C 0.0001216
8 *1264:A *273:10 5.59013e-05
9 *1264:A *457:42 8.0732e-05
10 *1272:A1 *1270:A 5.33005e-05
11 *1272:A1 *1272:A2 0.000125321
12 *1272:A1 *1272:B1 2.59355e-05
13 *1272:A1 *1272:C1 2.89114e-05
14 *1272:A1 *472:6 8.60796e-06
15 *270:8 *1271:A2 0.0001399
16 *270:8 *273:10 6.62761e-05
17 *270:10 *1272:A2 4.56437e-05
18 *270:10 *273:10 1.02504e-05
19 *1269:B *1264:A 4.08637e-05
20 *1270:B *1264:A 0.000195562
21 *1270:B *1272:A1 6.91157e-05
22 *1270:B *270:10 4.56437e-05
23 *265:10 *1264:A 3.06511e-05
24 *265:16 *1264:A 0.000394969
*RES
1 *1262:X *270:8 17.2107 
2 *270:8 *270:10 0.732143 
3 *270:10 *1264:A 20.8893 
4 *270:10 *1271:B1 13.8 
5 *270:8 *1272:A1 19.0098 
*END

*D_NET *271 0.00102562
*CONN
*I *1264:B I *D sky130_fd_sc_hd__or2_2
*I *1263:Y O *D sky130_fd_sc_hd__nor2_2
*CAP
1 *1264:B 0.000149321
2 *1263:Y 0.000149321
3 *1264:B *471:16 0.000127446
4 *1264:B *471:22 0.000214519
5 *1263:B *1264:B 0.000117196
6 *259:23 *1264:B 0.000214519
7 *265:16 *1264:B 5.33005e-05
*RES
1 *1263:Y *1264:B 32.5107 
*END

*D_NET *272 0.0019282
*CONN
*I *1266:A3 I *D sky130_fd_sc_hd__a31o_2
*I *1265:B1 I *D sky130_fd_sc_hd__a21oi_2
*I *1264:X O *D sky130_fd_sc_hd__or2_2
*CAP
1 *1266:A3 0.000360555
2 *1265:B1 0
3 *1264:X 0.000202548
4 *272:10 0.000563103
5 *1266:A3 *1267:A 0.000181392
6 *1266:A3 *1267:B 0.00011762
7 *1266:A3 *471:16 0.000115474
8 *1266:A3 *471:22 3.51442e-05
9 *272:10 *471:22 0.000123295
10 *272:10 *526:139 5.01117e-05
11 *272:10 *590:99 0.000175892
12 uio_out[3] *1266:A3 3.06878e-06
13 *1266:B1 *1266:A3 0
14 *1266:B1 *272:10 0
*RES
1 *1264:X *272:10 17.2107 
2 *272:10 *1265:B1 13.8 
3 *272:10 *1266:A3 20.1214 
*END

*D_NET *273 0.00285451
*CONN
*I *1267:A I *D sky130_fd_sc_hd__nor2_2
*I *1272:A2 I *D sky130_fd_sc_hd__o211a_2
*I *1271:C1 I *D sky130_fd_sc_hd__a211o_2
*I *1265:Y O *D sky130_fd_sc_hd__a21oi_2
*CAP
1 *1267:A 0.000102918
2 *1272:A2 0.000207935
3 *1271:C1 0
4 *1265:Y 0.000396686
5 *273:10 0.000501703
6 *1267:A *1267:B 4.22908e-05
7 *1267:A *471:16 1.08359e-05
8 *1272:A2 *1270:A 0.000125176
9 *1272:A2 *1272:B1 5.33005e-05
10 *1272:A2 *1272:C1 5.71472e-05
11 *1272:A2 *457:42 0.000195555
12 *1272:A2 *472:6 2.28598e-05
13 *273:10 *1271:A1 0.000136951
14 *273:10 *1271:A2 1.74352e-05
15 *273:10 *457:42 5.59013e-05
16 *273:10 *468:24 0.000347174
17 *273:10 *579:40 6.77822e-05
18 *1264:A *273:10 5.59013e-05
19 *1266:A3 *1267:A 0.000181392
20 *1266:B1 *1267:A 0
21 *1270:B *1272:A2 1.41029e-05
22 *1272:A1 *1272:A2 0.000125321
23 *1477:D *1267:A 1.39726e-05
24 *270:8 *273:10 6.62761e-05
25 *270:10 *1272:A2 4.56437e-05
26 *270:10 *273:10 1.02504e-05
*RES
1 *1265:Y *273:10 20.8179 
2 *273:10 *1271:C1 13.8 
3 *273:10 *1272:A2 19.3714 
4 *1265:Y *1267:A 30.3143 
*END

*D_NET *274 0.000681409
*CONN
*I *1267:B I *D sky130_fd_sc_hd__nor2_2
*I *1266:X O *D sky130_fd_sc_hd__a31o_2
*CAP
1 *1267:B 0.000117336
2 *1266:X 0.000117336
3 uio_out[3] *1267:B 0.000142053
4 *1266:A3 *1267:B 0.00011762
5 *1267:A *1267:B 4.22908e-05
6 *1477:D *1267:B 0.000144773
*RES
1 *1266:X *1267:B 22.85 
*END

*D_NET *275 0.00203475
*CONN
*I *1277:A I *D sky130_fd_sc_hd__or3b_2
*I *1278:A1 I *D sky130_fd_sc_hd__o21ba_2
*I *1268:X O *D sky130_fd_sc_hd__and3_2
*CAP
1 *1277:A 0.000116987
2 *1278:A1 0
3 *1268:X 0.000226717
4 *275:14 0.000343704
5 *1277:A *1277:B 0.000108022
6 *1277:A *1277:C_N 4.52782e-05
7 *1277:A *1278:A2 6.21956e-05
8 *275:14 *1277:C_N 0.000139907
9 *275:14 *1278:A2 4.59075e-05
10 *275:14 *1279:B 0.000255752
11 *275:14 *1279:C 0.000167318
12 *275:14 *284:12 0.000218404
13 *275:14 *284:24 0.000100684
14 *275:14 *473:12 9.22103e-06
15 *275:14 *526:93 0.000183291
16 *1479:D *275:14 5.30637e-06
17 *194:68 *275:14 6.05161e-06
*RES
1 *1268:X *275:14 25.425 
2 *275:14 *1278:A1 9.3 
3 *275:14 *1277:A 12.4607 
*END

*D_NET *276 0.00148827
*CONN
*I *1272:B1 I *D sky130_fd_sc_hd__o211a_2
*I *1271:A1 I *D sky130_fd_sc_hd__a211o_2
*I *1269:Y O *D sky130_fd_sc_hd__nand2_2
*CAP
1 *1272:B1 0.000142911
2 *1271:A1 0.000114222
3 *1269:Y 3.89994e-05
4 *276:10 0.000296132
5 *1271:A1 *1271:A2 0.000112809
6 *1272:B1 *1271:A2 7.42916e-05
7 *1272:B1 *457:42 1.91418e-05
8 *1272:B1 *472:25 0.000171375
9 *276:10 *1494:CLK 0.000128154
10 *276:10 *457:42 0.000128154
11 *601:DIODE *1272:B1 4.58976e-05
12 *1272:A1 *1272:B1 2.59355e-05
13 *1272:A2 *1272:B1 5.33005e-05
14 *273:10 *1271:A1 0.000136951
*RES
1 *1269:Y *276:10 19.9429 
2 *276:10 *1271:A1 11.9071 
3 *276:10 *1272:B1 22.4607 
*END

*D_NET *277 0.00103523
*CONN
*I *1272:C1 I *D sky130_fd_sc_hd__o211a_2
*I *1271:A2 I *D sky130_fd_sc_hd__a211o_2
*I *1270:X O *D sky130_fd_sc_hd__or2_2
*CAP
1 *1272:C1 2.76822e-05
2 *1271:A2 0.000179537
3 *1270:X 0
4 *277:4 0.000207219
5 *1271:A2 *457:42 0.000123295
6 *1272:C1 *1270:A 1.3701e-05
7 *601:DIODE *1271:A2 5.33005e-05
8 *1271:A1 *1271:A2 0.000112809
9 *1272:A1 *1272:C1 2.89114e-05
10 *1272:A2 *1272:C1 5.71472e-05
11 *1272:B1 *1271:A2 7.42916e-05
12 *270:8 *1271:A2 0.0001399
13 *273:10 *1271:A2 1.74352e-05
*RES
1 *1270:X *277:4 9.3 
2 *277:4 *1271:A2 22.9607 
3 *277:4 *1272:C1 10.2643 
*END

*D_NET *278 0.00196654
*CONN
*I *1273:C I *D sky130_fd_sc_hd__and3b_2
*I *1271:X O *D sky130_fd_sc_hd__a211o_2
*CAP
1 *1273:C 0.000713313
2 *1271:X 0.000713313
3 *1273:C *1273:A_N 5.33334e-05
4 *1273:C *468:24 0.000192262
5 *1273:C *472:25 2.44318e-05
6 *1273:C *472:39 4.87953e-05
7 *1273:C *590:99 7.00967e-05
8 *1264:A *1273:C 0.0001216
9 *1269:B *1273:C 2.93922e-05
10 *1270:B *1273:C 0
11 *265:10 *1273:C 0
*RES
1 *1271:X *1273:C 37.7116 
*END

*D_NET *279 0.00199522
*CONN
*I *1273:A_N I *D sky130_fd_sc_hd__and3b_2
*I *1277:B I *D sky130_fd_sc_hd__or3b_2
*I *1278:A2 I *D sky130_fd_sc_hd__o21ba_2
*I *1272:X O *D sky130_fd_sc_hd__o211a_2
*CAP
1 *1273:A_N 1.99379e-05
2 *1277:B 0.000170038
3 *1278:A2 4.91311e-05
4 *1272:X 0.000206156
5 *279:12 0.000311648
6 *279:8 0.000318573
7 *1273:A_N *590:99 9.90367e-05
8 *1277:B *1277:C_N 0
9 *1277:B *1279:C 9.71197e-05
10 *1278:A2 *1279:C 0.000140933
11 *279:8 *1279:B 1.37429e-05
12 *279:8 *1479:CLK 0.000190541
13 *279:8 *472:25 0
14 *279:12 *1279:B 4.24685e-05
15 *279:12 *1479:CLK 6.64337e-05
16 *1273:C *1273:A_N 5.33334e-05
17 *1277:A *1277:B 0.000108022
18 *1277:A *1278:A2 6.21956e-05
19 *275:14 *1278:A2 4.59075e-05
*RES
1 *1272:X *279:8 18.4786 
2 *279:8 *279:12 6.44643 
3 *279:12 *1278:A2 11.0857 
4 *279:12 *1277:B 12.8179 
5 *279:8 *1273:A_N 14.7464 
*END

*D_NET *280 0.00371147
*CONN
*I *1286:A1 I *D sky130_fd_sc_hd__o211ai_2
*I *1280:A I *D sky130_fd_sc_hd__nor2_2
*I *1276:A I *D sky130_fd_sc_hd__or2_2
*I *1274:X O *D sky130_fd_sc_hd__and3_2
*CAP
1 *1286:A1 0
2 *1280:A 0.000101059
3 *1276:A 0.000395405
4 *1274:X 0.00064475
5 *280:30 0.000350405
6 *1276:A *1276:B 0.000398815
7 *1276:A *471:22 4.15914e-05
8 *1276:A *579:56 7.83659e-05
9 *1276:A *586:74 8.04806e-06
10 *1280:A *1280:B 0.00014433
11 *1280:A *1286:C1 5.72705e-05
12 *1280:A *474:8 2.39654e-05
13 *1280:A *531:31 1.03483e-05
14 *280:30 *1280:B 3.60088e-05
15 *280:30 *1287:C 1.02936e-05
16 *280:30 *284:24 0.000943913
17 *280:30 *473:12 0.000185643
18 *280:30 *473:14 9.77274e-05
19 *280:30 *473:28 2.89114e-05
20 *280:30 *531:40 0.000139019
21 *134:8 *280:30 1.56e-05
*RES
1 *1274:X *1276:A 33.7071 
2 *1274:X *280:30 18.9071 
3 *280:30 *1280:A 20.55 
4 *280:30 *1286:A1 9.3 
*END

*D_NET *281 0.00169545
*CONN
*I *1276:B I *D sky130_fd_sc_hd__or2_2
*I *1275:Y O *D sky130_fd_sc_hd__nor2_2
*CAP
1 *1276:B 0.000270057
2 *1275:Y 0.000270057
3 *1276:B *1172:B 0.000228558
4 *1276:B *1431:B 5.52302e-05
5 *1276:B *1434:A 5.71472e-05
6 *1276:B *1434:B 0.000115011
7 *1276:B *1435:A 5.92245e-05
8 *1276:B *1440:B1 4.43157e-05
9 *1276:B *1440:B2 2.42662e-05
10 *1276:B *471:22 0
11 *1276:B *473:28 0.000102545
12 *1276:B *586:74 4.1311e-05
13 *1276:B *589:146 2.89114e-05
14 *1276:A *1276:B 0.000398815
*RES
1 *1275:Y *1276:B 36.0464 
*END

*D_NET *282 0.00158761
*CONN
*I *1278:B1_N I *D sky130_fd_sc_hd__o21ba_2
*I *1277:C_N I *D sky130_fd_sc_hd__or3b_2
*I *1276:X O *D sky130_fd_sc_hd__or2_2
*CAP
1 *1278:B1_N 0
2 *1277:C_N 0.000210728
3 *1276:X 0.00013773
4 *282:12 0.000348458
5 *282:12 *1494:CLK 6.05198e-05
6 *282:12 *426:89 0.000279546
7 *282:12 *457:42 2.8046e-05
8 *282:12 *472:39 5.83304e-05
9 *282:12 *526:93 0.000220441
10 *1277:A *1277:C_N 4.52782e-05
11 *1277:B *1277:C_N 0
12 *194:68 *1277:C_N 3.2687e-05
13 *194:68 *282:12 2.59355e-05
14 *275:14 *1277:C_N 0.000139907
*RES
1 *1276:X *282:12 23.2107 
2 *282:12 *1277:C_N 13.1571 
3 *282:12 *1278:B1_N 9.3 
*END

*D_NET *283 0.00163801
*CONN
*I *1279:C I *D sky130_fd_sc_hd__and3b_2
*I *1277:X O *D sky130_fd_sc_hd__or3b_2
*CAP
1 *1279:C 0.000384871
2 *1277:X 0.000384871
3 *1279:C *1279:B 1.77757e-05
4 *1279:C *1479:CLK 0
5 *1279:C *284:12 0.000255311
6 *1279:C *426:89 2.72449e-05
7 *1279:C *473:12 7.86112e-05
8 *1277:B *1279:C 9.71197e-05
9 *1278:A2 *1279:C 0.000140933
10 *194:68 *1279:C 8.39516e-05
11 *275:14 *1279:C 0.000167318
*RES
1 *1277:X *1279:C 35.1089 
*END

*D_NET *284 0.00488936
*CONN
*I *1279:A_N I *D sky130_fd_sc_hd__and3b_2
*I *1280:B I *D sky130_fd_sc_hd__nor2_2
*I *1286:A2 I *D sky130_fd_sc_hd__o211ai_2
*I *1278:X O *D sky130_fd_sc_hd__o21ba_2
*CAP
1 *1279:A_N 1.67212e-05
2 *1280:B 0.000120442
3 *1286:A2 1.62217e-05
4 *1278:X 0.000178521
5 *284:24 0.000752099
6 *284:12 0.000810677
7 *1279:A_N *473:12 1.04232e-05
8 *1280:B *1287:C 9.60875e-05
9 *1280:B *470:10 6.08174e-05
10 *1280:B *531:31 8.6229e-06
11 *1280:B *593:104 9.54798e-06
12 *1286:A2 *1286:C1 6.05161e-06
13 *1286:A2 *1287:B 1.02936e-05
14 *1286:A2 *1287:C 2.14757e-05
15 *284:12 *1494:CLK 0.000134024
16 *284:12 *426:89 0.000108912
17 *284:12 *473:12 5.22047e-05
18 *284:24 *1268:B 2.89114e-05
19 *284:24 *1274:B 5.52238e-05
20 *284:24 *1287:B 0.000226507
21 *284:24 *473:12 0.000264284
22 *284:24 *526:93 1.69961e-05
23 *1266:B1 *284:24 0.000185643
24 *1279:C *284:12 0.000255311
25 *1280:A *1280:B 0.00014433
26 *1479:D *1279:A_N 0
27 *275:14 *284:12 0.000218404
28 *275:14 *284:24 0.000100684
29 *280:30 *1280:B 3.60088e-05
30 *280:30 *284:24 0.000943913
*RES
1 *1278:X *284:12 23.6393 
2 *284:12 *284:24 15.4107 
3 *284:24 *1286:A2 9.83571 
4 *284:24 *1280:B 21.6214 
5 *284:12 *1279:A_N 9.72857 
*END

*D_NET *285 0.0029144
*CONN
*I *1282:A2 I *D sky130_fd_sc_hd__o21a_2
*I *1285:A2 I *D sky130_fd_sc_hd__o21bai_2
*I *1281:A2 I *D sky130_fd_sc_hd__a21oi_2
*I *1280:Y O *D sky130_fd_sc_hd__nor2_2
*CAP
1 *1282:A2 0
2 *1285:A2 0.000263472
3 *1281:A2 0.000209802
4 *1280:Y 0.000194829
5 *285:8 0.000473274
6 *285:6 0.000194829
7 *1281:A2 *1282:B1 0.000285789
8 *1281:A2 *335:26 9.83388e-05
9 *1281:A2 *593:83 0
10 *1285:A2 *1282:B1 2.09413e-05
11 *1285:A2 *1285:B1_N 5.65955e-05
12 *1285:A2 *290:6 5.65955e-05
13 *1285:A2 *419:25 0
14 *285:6 *1429:A 0.000441731
15 *1281:A1 *1281:A2 0.000362929
16 *1285:A1 *1285:A2 0.000130075
17 *124:39 *285:6 5.33005e-05
18 *124:52 *1281:A2 2.13965e-05
19 *124:52 *1285:A2 5.05056e-05
*RES
1 *1280:Y *285:6 13.5321 
2 *285:6 *285:8 4.5 
3 *285:8 *1281:A2 19.8357 
4 *285:8 *1285:A2 18.3893 
5 *285:6 *1282:A2 9.3 
*END

*D_NET *286 0.000871557
*CONN
*I *1282:B1 I *D sky130_fd_sc_hd__o21a_2
*I *1281:Y O *D sky130_fd_sc_hd__a21oi_2
*CAP
1 *1282:B1 0.000227464
2 *1281:Y 0.000227464
3 *1282:B1 *1429:A 5.49489e-05
4 *1282:B1 *419:25 0
5 *1281:A2 *1282:B1 0.000285789
6 *1285:A2 *1282:B1 2.09413e-05
7 *1480:D *1282:B1 0
8 *124:39 *1282:B1 5.49489e-05
*RES
1 *1281:Y *1282:B1 32.2071 
*END

*D_NET *287 0.00178302
*CONN
*I *1289:A1 I *D sky130_fd_sc_hd__a21oi_2
*I *1290:A1 I *D sky130_fd_sc_hd__a31o_2
*I *1283:Y O *D sky130_fd_sc_hd__nand2b_2
*CAP
1 *1289:A1 0.000249729
2 *1290:A1 0.000185762
3 *1283:Y 0
4 *287:6 0.000435491
5 *1289:A1 *1289:A2 2.28499e-05
6 *1289:A1 *1289:B1 0.000135028
7 *1289:A1 *1436:A1 0.000175678
8 *1289:A1 *590:83 1.21258e-05
9 *1290:A1 *1289:A2 4.40451e-05
10 *1290:A1 *1290:A2 5.71472e-05
11 *1290:A1 *1436:A1 9.74333e-05
12 *1290:A1 *290:6 8.57023e-05
13 *1250:A *1289:A1 0.000203659
14 *1250:A *1290:A1 7.83659e-05
*RES
1 *1283:Y *287:6 13.8 
2 *287:6 *1290:A1 17.7107 
3 *287:6 *1289:A1 19.2643 
*END

*D_NET *288 0.00138513
*CONN
*I *1285:B1_N I *D sky130_fd_sc_hd__o21bai_2
*I *1286:B1 I *D sky130_fd_sc_hd__o211ai_2
*I *1284:Y O *D sky130_fd_sc_hd__xnor2_2
*CAP
1 *1285:B1_N 0.000196764
2 *1286:B1 0
3 *1284:Y 0.000200088
4 *288:12 0.000396853
5 *1285:B1_N *1286:C1 9.90367e-05
6 *1285:B1_N *1287:B 9.56933e-05
7 *1285:B1_N *1287:C 1.56e-05
8 *1285:B1_N *290:6 0.000175599
9 *288:12 *1481:CLK 5.52238e-05
10 *288:12 *419:25 0
11 *288:12 *472:51 2.89016e-05
12 *288:12 *531:31 0
13 *1285:A1 *1285:B1_N 5.52302e-05
14 *1285:A1 *288:12 9.54798e-06
15 *1285:A2 *1285:B1_N 5.65955e-05
*RES
1 *1284:Y *288:12 21.3893 
2 *288:12 *1286:B1 9.3 
3 *288:12 *1285:B1_N 14.8 
*END

*D_NET *289 0.00158693
*CONN
*I *1287:B I *D sky130_fd_sc_hd__and3_2
*I *1285:Y O *D sky130_fd_sc_hd__o21bai_2
*CAP
1 *1287:B 0.000491546
2 *1285:Y 0.000491546
3 *1287:B *1286:C1 0.000271345
4 *1285:B1_N *1287:B 9.56933e-05
5 *1286:A2 *1287:B 1.02936e-05
6 *284:24 *1287:B 0.000226507
*RES
1 *1285:Y *1287:B 25.725 
*END

*D_NET *290 0.00435264
*CONN
*I *1287:C I *D sky130_fd_sc_hd__and3_2
*I *1289:A2 I *D sky130_fd_sc_hd__a21oi_2
*I *1290:A2 I *D sky130_fd_sc_hd__a31o_2
*I *1286:Y O *D sky130_fd_sc_hd__o211ai_2
*CAP
1 *1287:C 0.000372316
2 *1289:A2 0.000257184
3 *1290:A2 5.11493e-05
4 *1286:Y 0
5 *290:6 0.000684001
6 *290:4 0.000747983
7 *1287:C *1286:C1 4.72487e-05
8 *1287:C *531:40 9.80173e-05
9 *1289:A2 *1289:B1 9.41642e-05
10 *1289:A2 *1290:A3 1.721e-05
11 *1289:A2 *472:51 0
12 *1289:A2 *590:83 0.000225609
13 *1290:A2 *1290:A3 1.33343e-05
14 uio_oe[3] *1289:A2 0.000211942
15 *1243:B *1289:A2 0.000145497
16 *1243:B *1290:A2 5.52238e-05
17 *1243:B *290:6 5.52302e-05
18 *1250:A *1289:A2 0.000327423
19 *1250:A *1290:A2 9.22103e-06
20 *1280:B *1287:C 9.60875e-05
21 *1285:A1 *290:6 5.52302e-05
22 *1285:A2 *290:6 5.65955e-05
23 *1285:B1_N *1287:C 1.56e-05
24 *1285:B1_N *290:6 0.000175599
25 *1286:A2 *1287:C 2.14757e-05
26 *1289:A1 *1289:A2 2.28499e-05
27 *1290:A1 *1289:A2 4.40451e-05
28 *1290:A1 *1290:A2 5.71472e-05
29 *1290:A1 *290:6 8.57023e-05
30 *134:52 *290:6 0.00029926
31 *280:30 *1287:C 1.02936e-05
*RES
1 *1286:Y *290:4 9.3 
2 *290:4 *290:6 7.92857 
3 *290:6 *1290:A2 10.675 
4 *290:6 *1289:A2 26.0679 
5 *290:4 *1287:C 14.3714 
*END

*D_NET *291 0.00170522
*CONN
*I *1289:B1 I *D sky130_fd_sc_hd__a21oi_2
*I *1290:A3 I *D sky130_fd_sc_hd__a31o_2
*I *1288:Y O *D sky130_fd_sc_hd__xnor2_2
*CAP
1 *1289:B1 0.000134658
2 *1290:A3 0.000114853
3 *1288:Y 2.46213e-05
4 *291:8 0.000274132
5 *1289:B1 *1291:A 0.000135911
6 *1289:B1 *590:83 1.98839e-05
7 *1290:A3 *1291:A 0.000157888
8 *1290:A3 *472:51 1.36976e-05
9 *291:8 *472:51 9.60875e-05
10 uio_oe[3] *1289:B1 0.000188206
11 uio_oe[3] *1290:A3 9.25014e-06
12 *1243:B *1290:A3 0.000145497
13 *1250:A *1290:A3 1.39726e-05
14 *1250:B *1289:B1 1.46883e-05
15 *1289:A1 *1289:B1 0.000135028
16 *1289:A2 *1289:B1 9.41642e-05
17 *1289:A2 *1290:A3 1.721e-05
18 *1290:A2 *1290:A3 1.33343e-05
19 *1446:GATE *1290:A3 6.05161e-06
20 *259:50 *291:8 9.60875e-05
*RES
1 *1288:Y *291:8 14.7464 
2 *291:8 *1290:A3 16.8893 
3 *291:8 *1289:B1 17.7107 
*END

*D_NET *292 0.00163177
*CONN
*I *1291:A I *D sky130_fd_sc_hd__nor2_2
*I *1289:Y O *D sky130_fd_sc_hd__a21oi_2
*CAP
1 *1291:A 0.000324254
2 *1289:Y 0.000324254
3 *1291:A *1291:B 0.000195848
4 *1291:A *472:51 5.88913e-05
5 *1243:B *1291:A 1.43434e-05
6 *1250:A *1291:A 0.000238247
7 *1250:B *1291:A 6.01582e-05
8 *1289:B1 *1291:A 0.000135911
9 *1290:A3 *1291:A 0.000157888
10 *1446:GATE *1291:A 2.58821e-05
11 *1482:D *1291:A 9.60939e-05
*RES
1 *1289:Y *1291:A 37.2786 
*END

*D_NET *293 0.000659624
*CONN
*I *1291:B I *D sky130_fd_sc_hd__nor2_2
*I *1290:X O *D sky130_fd_sc_hd__a31o_2
*CAP
1 *1291:B 0.000161421
2 *1290:X 0.000161421
3 *1291:A *1291:B 0.000195848
4 *1446:GATE *1291:B 0.000140933
*RES
1 *1290:X *1291:B 22.4393 
*END

*D_NET *294 0.0159819
*CONN
*I *1542:A I *D sky130_fd_sc_hd__clkdlybuf4s25_1
*I *1541:A I *D sky130_fd_sc_hd__clkdlybuf4s25_1
*I *1292:Y O *D sky130_fd_sc_hd__a21oi_2
*CAP
1 *1542:A 0.00131693
2 *1541:A 0
3 *1292:Y 0.00230644
4 *294:32 0.00193843
5 *294:22 0.00292794
6 *1542:A *1378:A2 6.17578e-05
7 *1542:A *1382:A2 0.000220044
8 *1542:A *1387:A2 3.23542e-05
9 *1542:A *1387:A3 4.22135e-06
10 *1542:A *1396:A1 0.000109339
11 *1542:A *355:18 3.63452e-05
12 *1542:A *362:22 0.000476783
13 *1542:A *362:47 0.000181911
14 *1542:A *371:22 0
15 *1542:A *417:10 1.03106e-05
16 *1542:A *588:84 0.00106454
17 *294:22 *1076:A 7.77751e-05
18 *294:22 *1143:A 3.40725e-05
19 *294:22 *1153:A 0.000407061
20 *294:22 *1153:B 5.52302e-05
21 *294:22 *1320:A2 0.000165952
22 *294:22 *1361:D 0.000128901
23 *294:22 *1398:A1 3.23785e-05
24 *294:22 *1398:A2 5.52238e-05
25 *294:22 *301:6 4.87953e-05
26 *294:22 *320:50 7.95584e-05
27 *294:22 *321:12 1.12387e-05
28 *294:22 *362:14 5.72451e-05
29 *294:22 *585:94 0.000104534
30 *294:32 *1508:CLK 1.88048e-05
31 *294:32 *417:10 2.54386e-05
32 *294:32 *526:32 0
33 *1143:B *294:22 0.000137981
34 *1145:B *294:22 3.51368e-05
35 *1145:B *294:32 0.000522023
36 *1165:A2 *294:22 4.96254e-05
37 *1292:B1 *294:22 5.71472e-05
38 *1300:A1 *294:22 6.86792e-05
39 *1300:A1 *294:32 7.48301e-06
40 *1361:A *294:22 0.000152048
41 *1500:D *294:22 3.98547e-05
42 *1509:D *294:32 4.84486e-05
43 *82:20 *1542:A 0.00281053
44 *176:42 *294:32 6.33415e-05
*RES
1 *1292:Y *294:22 46.7286 
2 *294:22 *294:32 15.3214 
3 *294:32 *1541:A 13.8 
4 *294:32 *1542:A 27.0165 
*END

*D_NET *295 0.00316365
*CONN
*I *1296:B I *D sky130_fd_sc_hd__or2_2
*I *1295:B I *D sky130_fd_sc_hd__nor2_2
*I *1294:X O *D sky130_fd_sc_hd__and4_2
*CAP
1 *1296:B 0.000424052
2 *1295:B 0.00015545
3 *1294:X 0.000219154
4 *295:10 0.000798656
5 *1295:B *1406:A 7.83659e-05
6 *1295:B *1507:CLK 3.08382e-06
7 *1295:B *1584:A 7.85868e-05
8 *1295:B *1585:A 9.16325e-06
9 *1295:B *494:14 0.000100625
10 *1296:B *1346:A 8.49143e-05
11 *1296:B *322:56 0.000162326
12 *1296:B *553:8 0.000392019
13 *295:10 *1338:A 0.000134271
14 *295:10 *1584:A 0.000179353
15 *295:10 *1585:A 1.50738e-05
16 *295:10 *417:36 0.000135028
17 *1296:A *1295:B 3.99189e-05
18 *176:42 *1295:B 0.000139913
19 *217:27 *1295:B 1.36976e-05
*RES
1 *1294:X *295:10 17.7107 
2 *295:10 *1295:B 18.3536 
3 *295:10 *1296:B 20.5321 
*END

*D_NET *296 0.00686404
*CONN
*I *1378:C1 I *D sky130_fd_sc_hd__o211a_2
*I *1396:C1 I *D sky130_fd_sc_hd__o211a_2
*I *1387:C1 I *D sky130_fd_sc_hd__o311a_2
*I *1295:Y O *D sky130_fd_sc_hd__nor2_2
*CAP
1 *1378:C1 3.66738e-05
2 *1396:C1 0.000274647
3 *1387:C1 1.69531e-05
4 *1295:Y 0.000664348
5 *296:26 0.00104331
6 *296:14 0.00145273
7 *1378:C1 *1378:A2 1.72724e-05
8 *1378:C1 *417:68 5.61242e-05
9 *1387:C1 *1387:A2 5.33005e-05
10 *1387:C1 *362:77 5.33005e-05
11 *1396:C1 *1384:B1 1.91745e-05
12 *1396:C1 *1387:A3 5.1588e-05
13 *1396:C1 *1387:B1 5.19611e-05
14 *1396:C1 *1392:A 0
15 *1396:C1 *1396:A1 3.29719e-05
16 *1396:C1 *1396:A2 2.04825e-05
17 *1396:C1 *1425:B 0
18 *1396:C1 *355:18 6.37883e-06
19 *1396:C1 *371:22 0
20 *1396:C1 *382:12 1.80461e-05
21 *296:14 *1405:B 4.81789e-05
22 *296:14 *355:18 0.000837796
23 *296:14 *417:53 8.68127e-05
24 *296:26 *1346:B 1.71096e-05
25 *296:26 *1378:A2 1.54493e-05
26 *296:26 *1387:A3 0.00012401
27 *296:26 *1387:B1 4.46186e-06
28 *296:26 *1403:A 0.000175502
29 *296:26 *355:18 0
30 *296:26 *417:68 6.35819e-05
31 *1506:D *296:26 0.000126792
32 *82:20 *296:14 0.00149507
*RES
1 *1295:Y *296:14 24.5363 
2 *296:14 *296:26 19.1696 
3 *296:26 *1387:C1 14.3357 
4 *296:26 *1396:C1 18.0321 
5 *296:14 *1378:C1 14.6839 
*END

*D_NET *297 0.00170584
*CONN
*I *1371:B1 I *D sky130_fd_sc_hd__a21oi_2
*I *1391:B1 I *D sky130_fd_sc_hd__a21oi_2
*I *1382:B1 I *D sky130_fd_sc_hd__a21oi_2
*I *1296:X O *D sky130_fd_sc_hd__or2_2
*CAP
1 *1371:B1 7.78109e-05
2 *1391:B1 0
3 *1382:B1 9.81597e-05
4 *1296:X 8.27669e-05
5 *297:6 0.000258738
6 *1371:B1 *1583:A 0.000142856
7 *1371:B1 *371:22 6.71755e-05
8 *1371:B1 *553:29 0.000137427
9 *1371:B1 *553:89 2.44318e-05
10 *1382:B1 *322:56 0.000166473
11 *297:6 *322:56 0.00021528
12 *297:6 *553:29 2.14658e-05
13 *79:20 *1371:B1 1.21289e-05
14 *79:20 *1382:B1 4.31823e-05
15 *83:28 *297:6 0.000357945
*RES
1 *1296:X *297:6 13.1214 
2 *297:6 *1382:B1 20.55 
3 *297:6 *1391:B1 9.3 
4 *297:6 *1371:B1 12.3 
*END

*D_NET *298 0.00117555
*CONN
*I *1308:A1 I *D sky130_fd_sc_hd__a21oi_2
*I *1307:B I *D sky130_fd_sc_hd__and3_2
*I *1297:Y O *D sky130_fd_sc_hd__a21oi_2
*CAP
1 *1308:A1 1.99379e-05
2 *1307:B 0.00019831
3 *1297:Y 6.51856e-05
4 *298:8 0.000283433
5 *1307:B *1307:A 7.83587e-05
6 *1307:B *1307:C 1.69115e-05
7 *1307:B *451:60 0
8 *1307:B *580:88 0.00018372
9 *1308:A1 *1308:B1 9.90367e-05
10 *298:8 *1313:C1 2.28428e-05
11 *298:8 *451:60 5.53719e-05
12 *1168:B *1307:B 7.43412e-05
13 *1168:B *1308:A1 5.33334e-05
14 *1168:B *298:8 2.47697e-05
*RES
1 *1297:Y *298:8 15.4429 
2 *298:8 *1307:B 17.5143 
3 *298:8 *1308:A1 14.7464 
*END

*D_NET *299 0.00137956
*CONN
*I *1309:A1 I *D sky130_fd_sc_hd__o21a_2
*I *1304:B I *D sky130_fd_sc_hd__nor3_2
*I *1596:A I *D sky130_fd_sc_hd__clkbuf_2
*I *1298:Y O *D sky130_fd_sc_hd__a211oi_2
*CAP
1 *1309:A1 0
2 *1304:B 0.000131575
3 *1596:A 2.97294e-05
4 *1298:Y 2.45658e-05
5 *299:17 0.000254059
6 *299:6 0.000176779
7 *1304:B *1304:C 0.000170301
8 *1304:B *1309:B1 0
9 *1304:B *451:48 1.4045e-05
10 *1596:A *1315:A2_N 9.60875e-05
11 *1596:A *527:60 4.87854e-05
12 *299:6 *1315:A2_N 9.71197e-05
13 *299:6 *527:50 2.89016e-05
14 *299:6 *527:60 2.28598e-05
15 *299:17 *1304:C 7.86062e-05
16 *299:17 *527:60 0
17 *299:17 *528:70 6.29573e-05
18 *176:24 *1304:B 0
19 *176:34 *299:17 0.000143188
*RES
1 *1298:Y *299:6 10.2464 
2 *299:6 *1596:A 10.2464 
3 *299:6 *299:17 7.35714 
4 *299:17 *1304:B 16.5857 
5 *299:17 *1309:A1 13.8 
*END

*D_NET *300 0.000483603
*CONN
*I *1300:S I *D sky130_fd_sc_hd__mux2_1
*I *1299:Y O *D sky130_fd_sc_hd__nand2b_2
*CAP
1 *1300:S 7.77934e-05
2 *1299:Y 7.77934e-05
3 *1300:S *1299:B 0.00016477
4 *1299:A_N *1300:S 0.000163246
*RES
1 *1299:Y *1300:S 29.85 
*END

*D_NET *301 0.00129363
*CONN
*I *1302:A2 I *D sky130_fd_sc_hd__a22o_2
*I *1320:A2 I *D sky130_fd_sc_hd__o21ba_2
*I *1300:X O *D sky130_fd_sc_hd__mux2_1
*CAP
1 *1302:A2 0.000105532
2 *1320:A2 0.000101549
3 *1300:X 2.77303e-05
4 *301:6 0.000234811
5 *1302:A2 *1302:A1 5.58941e-05
6 *1302:A2 *1302:B1 1.57155e-05
7 *1302:A2 *590:115 0.000125717
8 *1143:B *1320:A2 0.000313615
9 *1143:B *301:6 8.36572e-05
10 *1299:A_N *1302:A2 0
11 *187:31 *1302:A2 1.46576e-05
12 *294:22 *1320:A2 0.000165952
13 *294:22 *301:6 4.87953e-05
*RES
1 *1300:X *301:6 10.2464 
2 *301:6 *1320:A2 13.0321 
3 *301:6 *1302:A2 20.6973 
*END

*D_NET *302 0.0015494
*CONN
*I *1315:B2 I *D sky130_fd_sc_hd__o2bb2a_2
*I *1302:B1 I *D sky130_fd_sc_hd__a22o_2
*I *1301:X O *D sky130_fd_sc_hd__xor2_2
*CAP
1 *1315:B2 0.000162998
2 *1302:B1 0.000158625
3 *1301:X 0.000203152
4 *302:6 0.000524775
5 *1302:B1 *1302:B2 5.38444e-06
6 *1302:B1 *1316:B1 5.90401e-05
7 *1315:B2 *1315:A1_N 0
8 *1315:B2 *1316:B1 3.0285e-05
9 *1315:B2 *527:60 4.6025e-06
10 *302:6 *533:54 5.33005e-05
11 *1302:A2 *1302:B1 1.57155e-05
12 *176:34 *1315:B2 0
13 *187:12 *302:6 0.000125443
14 *187:31 *1302:B1 0.000128304
15 *187:31 *302:6 7.77751e-05
*RES
1 *1301:X *302:6 13.1214 
2 *302:6 *1302:B1 12.8714 
3 *302:6 *1315:B2 20.8536 
*END

*D_NET *303 0.0010149
*CONN
*I *1316:B1 I *D sky130_fd_sc_hd__a21o_2
*I *1302:X O *D sky130_fd_sc_hd__a22o_2
*CAP
1 *1316:B1 0.000234643
2 *1302:X 0.000234643
3 *1316:B1 *1315:A1_N 6.9517e-05
4 *1316:B1 *1315:A2_N 5.52238e-05
5 *1316:B1 *1315:B1 0.000140809
6 *1316:B1 *1316:A1 9.99853e-05
7 *1316:B1 *1316:A2 9.07497e-05
8 *1302:B1 *1316:B1 5.90401e-05
9 *1315:B2 *1316:B1 3.0285e-05
*RES
1 *1302:X *1316:B1 33.475 
*END

*D_NET *304 0.00119476
*CONN
*I *1304:C I *D sky130_fd_sc_hd__nor3_2
*I *1309:A2 I *D sky130_fd_sc_hd__o21a_2
*I *1303:X O *D sky130_fd_sc_hd__a31o_2
*CAP
1 *1304:C 0.00012802
2 *1309:A2 9.75226e-05
3 *1303:X 9.60337e-05
4 *304:8 0.000321577
5 *1304:C *450:50 0.000170301
6 *1304:C *528:70 5.13111e-05
7 *304:8 *450:50 1.92905e-05
8 *1171:C *1309:A2 2.22891e-05
9 *1171:C *304:8 5.74499e-06
10 *1304:B *1304:C 0.000170301
11 *176:24 *1309:A2 3.37625e-05
12 *299:17 *1304:C 7.86062e-05
*RES
1 *1303:X *304:8 10.675 
2 *304:8 *1309:A2 10.675 
3 *304:8 *1304:C 21.9964 
*END

*D_NET *305 0.00188909
*CONN
*I *1305:A I *D sky130_fd_sc_hd__inv_2
*I *1310:A I *D sky130_fd_sc_hd__nor4_2
*I *1304:Y O *D sky130_fd_sc_hd__nor3_2
*CAP
1 *1305:A 0.000219435
2 *1310:A 0.000225712
3 *1304:Y 0.000205828
4 *305:6 0.000650975
5 *1305:A *1313:A1 0
6 *1305:A *1315:A1_N 3.06511e-05
7 *1305:A *527:66 0.000105266
8 *1305:A *580:88 5.31158e-05
9 *1310:A *1310:B 4.6822e-05
10 *1310:A *1313:B1 0.00011375
11 *1310:A *311:6 5.33005e-05
12 *305:6 *1310:D 4.43256e-05
13 *305:6 *311:6 8.46829e-05
14 *169:16 *1305:A 5.52238e-05
*RES
1 *1304:Y *305:6 11.8893 
2 *305:6 *1310:A 12.6214 
3 *305:6 *1305:A 22.3 
*END

*D_NET *306 0.00154024
*CONN
*I *1313:A1 I *D sky130_fd_sc_hd__a221o_2
*I *1305:Y O *D sky130_fd_sc_hd__inv_2
*CAP
1 *1313:A1 0.000431539
2 *1305:Y 0.000431539
3 *1313:A1 *1310:B 1.98839e-05
4 *1313:A1 *1313:A2 0.000120034
5 *1313:A1 *1313:B1 2.3906e-05
6 *1313:A1 *1316:A1 5.65955e-05
7 *1313:A1 *308:12 0.000141035
8 *1313:A1 *580:88 0.000315711
9 *1305:A *1313:A1 0
*RES
1 *1305:Y *1313:A1 35.0286 
*END

*D_NET *307 0.00136482
*CONN
*I *1307:C I *D sky130_fd_sc_hd__and3_2
*I *1308:A2 I *D sky130_fd_sc_hd__a21oi_2
*I *1306:X O *D sky130_fd_sc_hd__or2_2
*CAP
1 *1307:C 0.000238493
2 *1308:A2 0
3 *1306:X 2.55135e-05
4 *307:6 0.000264006
5 *1307:C *1119:A 4.72917e-05
6 *1307:C *1120:B 9.54798e-06
7 *1307:C *1307:A 0.000212014
8 *1307:C *451:60 0.000194355
9 *1307:C *580:88 3.9846e-05
10 *1307:C *582:110 1.98839e-05
11 *307:6 *582:110 2.59355e-05
12 *1168:B *1307:C 1.58163e-05
13 *1168:B *307:6 1.21258e-05
14 *1306:A *307:6 6.05161e-06
15 *1307:B *1307:C 1.69115e-05
16 *166:8 *1307:C 0.000139913
17 *169:16 *1307:C 9.71197e-05
*RES
1 *1306:X *307:6 9.83571 
2 *307:6 *1308:A2 9.3 
3 *307:6 *1307:C 24.8179 
*END

*D_NET *308 0.00153805
*CONN
*I *1310:B I *D sky130_fd_sc_hd__nor4_2
*I *1313:A2 I *D sky130_fd_sc_hd__a221o_2
*I *1307:X O *D sky130_fd_sc_hd__and3_2
*CAP
1 *1310:B 7.6322e-05
2 *1313:A2 2.33098e-05
3 *1307:X 0.000252816
4 *308:12 0.000352448
5 *1310:B *1313:B1 0.000217376
6 *1313:A2 *1313:B1 5.78474e-05
7 *308:12 *1313:B2 0
8 *308:12 *580:88 0.000230155
9 *1310:A *1310:B 4.6822e-05
10 *1313:A1 *1310:B 1.98839e-05
11 *1313:A1 *1313:A2 0.000120034
12 *1313:A1 *308:12 0.000141035
*RES
1 *1307:X *308:12 22.425 
2 *308:12 *1313:A2 10.4518 
3 *308:12 *1310:B 11.925 
*END

*D_NET *309 0.00170317
*CONN
*I *1310:C I *D sky130_fd_sc_hd__nor4_2
*I *1308:Y O *D sky130_fd_sc_hd__a21oi_2
*CAP
1 *1310:C 0.000570302
2 *1308:Y 0.000570302
3 *1310:C *1308:B1 4.26026e-05
4 *1310:C *1313:B1 0.000511533
5 *1310:C *1313:B2 8.43535e-06
*RES
1 *1308:Y *1310:C 26.7607 
*END

*D_NET *310 0.00297135
*CONN
*I *1313:C1 I *D sky130_fd_sc_hd__a221o_2
*I *1310:D I *D sky130_fd_sc_hd__nor4_2
*I *1309:X O *D sky130_fd_sc_hd__o21a_2
*CAP
1 *1313:C1 0.000665478
2 *1310:D 0.000139298
3 *1309:X 2.77733e-05
4 *310:8 0.000832549
5 *1310:D *1304:A 1.94945e-05
6 *1310:D *1309:B1 0.000107586
7 *1310:D *311:6 5.52238e-05
8 *1310:D *451:48 2.18537e-05
9 *1310:D *527:66 4.22135e-06
10 *1313:C1 *527:94 0.000125241
11 *310:8 *451:48 6.12326e-06
12 *310:8 *527:60 0
13 *1168:B *1313:C1 5.54183e-05
14 *1171:C *1313:C1 0.000843923
15 *298:8 *1313:C1 2.28428e-05
16 *305:6 *1310:D 4.43256e-05
*RES
1 *1309:X *310:8 14.3357 
2 *310:8 *1310:D 16.8 
3 *310:8 *1313:C1 32.7821 
*END

*D_NET *311 0.00244926
*CONN
*I *1315:A1_N I *D sky130_fd_sc_hd__o2bb2a_2
*I *1313:B1 I *D sky130_fd_sc_hd__a221o_2
*I *1310:Y O *D sky130_fd_sc_hd__nor4_2
*CAP
1 *1315:A1_N 0.000325106
2 *1313:B1 0.00018838
3 *1310:Y 4.64582e-05
4 *311:6 0.000559944
5 *1315:A1_N *1315:B1 3.68783e-05
6 *1315:A1_N *1316:A1 0
7 *1315:A1_N *317:14 0
8 *1315:A1_N *451:48 5.75933e-05
9 *1315:A1_N *527:60 1.6507e-05
10 *1315:A1_N *527:66 6.057e-07
11 *1305:A *1315:A1_N 3.06511e-05
12 *1310:A *1313:B1 0.00011375
13 *1310:A *311:6 5.33005e-05
14 *1310:B *1313:B1 0.000217376
15 *1310:C *1313:B1 0.000511533
16 *1310:D *311:6 5.52238e-05
17 *1313:A1 *1313:B1 2.3906e-05
18 *1313:A2 *1313:B1 5.78474e-05
19 *1315:B2 *1315:A1_N 0
20 *1316:B1 *1315:A1_N 6.9517e-05
21 *305:6 *311:6 8.46829e-05
*RES
1 *1310:Y *311:6 10.6571 
2 *311:6 *1313:B1 16.2464 
3 *311:6 *1315:A1_N 23.6482 
*END

*D_NET *312 0.000596998
*CONN
*I *1312:B1 I *D sky130_fd_sc_hd__a41o_2
*I *1311:X O *D sky130_fd_sc_hd__a21bo_2
*CAP
1 *1312:B1 0.000156728
2 *1311:X 0.000156728
3 *1312:B1 *1158:A2 9.83442e-05
4 *1312:B1 *1313:B2 4.2001e-05
5 *1312:A3 *1312:B1 0
6 *1312:A4 *1312:B1 0.000132032
7 *167:12 *1312:B1 1.11654e-05
*RES
1 *1311:X *1312:B1 30.7964 
*END

*D_NET *313 0.00120947
*CONN
*I *1313:B2 I *D sky130_fd_sc_hd__a221o_2
*I *1312:X O *D sky130_fd_sc_hd__a41o_2
*CAP
1 *1313:B2 0.000343699
2 *1312:X 0.000343699
3 *1313:B2 *1120:A 0.000146257
4 *1313:B2 *1158:A2 2.6269e-05
5 *1313:B2 *527:94 0.000262595
6 *1310:C *1313:B2 8.43535e-06
7 *1312:A4 *1313:B2 3.65086e-05
8 *1312:B1 *1313:B2 4.2001e-05
9 *308:12 *1313:B2 0
*RES
1 *1312:X *1313:B2 34.1357 
*END

*D_NET *314 0.00121054
*CONN
*I *1316:A1 I *D sky130_fd_sc_hd__a21o_2
*I *1313:X O *D sky130_fd_sc_hd__a221o_2
*CAP
1 *1316:A1 0.000464737
2 *1313:X 0.000464737
3 *1316:A1 *1315:B1 1.10868e-05
4 *1316:A1 *317:14 8.06419e-05
5 *1316:A1 *320:50 0
6 *1316:A1 *527:94 0
7 *1316:A1 *584:137 3.27526e-05
8 *1313:A1 *1316:A1 5.65955e-05
9 *1315:A1_N *1316:A1 0
10 *1316:B1 *1316:A1 9.99853e-05
*RES
1 *1313:X *1316:A1 34.5821 
*END

*D_NET *315 0.00308685
*CONN
*I *1315:A2_N I *D sky130_fd_sc_hd__o2bb2a_2
*I *1314:Y O *D sky130_fd_sc_hd__nor4_2
*CAP
1 *1315:A2_N 0.000937205
2 *1314:Y 0.000937205
3 *1315:A2_N *1191:A1 0.000181374
4 *1315:A2_N *1298:B1 9.16074e-05
5 *1315:A2_N *1315:B1 6.15352e-05
6 *1315:A2_N *1483:CLK 0
7 *1315:A2_N *446:31 9.17908e-05
8 *1315:A2_N *451:18 0.00030987
9 *1315:A2_N *524:10 5.52302e-05
10 *1315:A2_N *525:24 7.35637e-05
11 *1315:A2_N *527:50 1.02936e-05
12 *1315:A2_N *527:60 1.00073e-05
13 *1190:B *1315:A2_N 0
14 *1316:B1 *1315:A2_N 5.52238e-05
15 *1487:D *1315:A2_N 0
16 *1596:A *1315:A2_N 9.60875e-05
17 *211:26 *1315:A2_N 7.58571e-05
18 *211:48 *1315:A2_N 2.87555e-06
19 *216:17 *1315:A2_N 0
20 *299:6 *1315:A2_N 9.71197e-05
*RES
1 *1314:Y *1315:A2_N 45.4393 
*END

*D_NET *316 0.00026071
*CONN
*I *1316:A2 I *D sky130_fd_sc_hd__a21o_2
*I *1315:X O *D sky130_fd_sc_hd__o2bb2a_2
*CAP
1 *1316:A2 8.49804e-05
2 *1315:X 8.49804e-05
3 *1316:B1 *1316:A2 9.07497e-05
*RES
1 *1315:X *1316:A2 19.975 
*END

*D_NET *317 0.00202603
*CONN
*I *1321:A I *D sky130_fd_sc_hd__and2_2
*I *1335:A I *D sky130_fd_sc_hd__nand3_2
*I *1316:X O *D sky130_fd_sc_hd__a21o_2
*CAP
1 *1321:A 0.000113956
2 *1335:A 0.000149091
3 *1316:X 0.000416059
4 *317:14 0.000679106
5 *1321:A *1321:B 9.97055e-05
6 *1321:A *1335:C 1.32056e-05
7 *1335:A *1321:B 2.29677e-05
8 *1335:A *1335:C 5.49544e-05
9 *1335:A *1399:B1 3.45371e-05
10 *1335:A *336:6 2.84109e-05
11 *1335:A *528:30 2.18902e-05
12 *317:14 *1315:B1 5.49544e-05
13 *317:14 *1320:A1 4.16936e-05
14 *317:14 *1335:C 0.000157854
15 *317:14 *320:50 0
16 *317:14 *584:137 5.70016e-05
17 *317:14 *590:115 0
18 *1315:A1_N *317:14 0
19 *1316:A1 *317:14 8.06419e-05
*RES
1 *1316:X *317:14 26.0679 
2 *317:14 *1335:A 11.9071 
3 *317:14 *1321:A 11.4964 
*END

*D_NET *318 0.000469933
*CONN
*I *1319:A0 I *D sky130_fd_sc_hd__mux2_1
*I *1317:X O *D sky130_fd_sc_hd__or2_2
*CAP
1 *1319:A0 0.000126462
2 *1317:X 0.000126462
3 *1319:A0 *1446:CLK 2.89016e-05
4 *1319:A0 *319:12 5.68713e-05
5 *1319:A0 *593:83 7.83659e-05
6 *1234:B *1319:A0 0
7 *1319:S *1319:A0 5.28707e-05
*RES
1 *1317:X *1319:A0 30.0821 
*END

*D_NET *319 0.00400218
*CONN
*I *1360:A_N I *D sky130_fd_sc_hd__and4b_2
*I *1319:A1 I *D sky130_fd_sc_hd__mux2_1
*I *1318:Y O *D sky130_fd_sc_hd__nand2_2
*CAP
1 *1360:A_N 0.000948317
2 *1319:A1 0
3 *1318:Y 0.000129544
4 *319:12 0.00107786
5 *1360:A_N *1446:CLK 6.3198e-05
6 *1360:A_N *1447:D 8.42801e-05
7 *1360:A_N *1548:A 1.39841e-05
8 *1360:A_N *426:176 4.95821e-05
9 *319:12 *1446:CLK 0.000195003
10 *319:12 *320:24 8.14581e-05
11 *319:12 *584:74 1.98839e-05
12 *319:12 *593:59 0
13 *319:12 *593:68 5.33005e-05
14 *1172:C *1360:A_N 0.000159478
15 *1292:A2 *1360:A_N 0.000127999
16 *1319:A0 *319:12 5.68713e-05
17 *1359:B1 *1360:A_N 0.000886197
18 *213:26 *1360:A_N 5.52238e-05
*RES
1 *1318:Y *319:12 13.175 
2 *319:12 *1319:A1 9.3 
3 *319:12 *1360:A_N 26.7464 
*END

*D_NET *320 0.00990905
*CONN
*I *1320:B1_N I *D sky130_fd_sc_hd__o21ba_2
*I *1319:X O *D sky130_fd_sc_hd__mux2_1
*CAP
1 *1320:B1_N 0
2 *1319:X 0.00112488
3 *320:50 0.0013375
4 *320:24 0.00246239
5 *320:24 *1126:A1 0.000170301
6 *320:24 *1126:A2 1.0945e-05
7 *320:24 *1129:B2 0
8 *320:24 *1150:A 5.33005e-05
9 *320:24 *1173:A 0.000452571
10 *320:24 *1233:B 7.32955e-05
11 *320:24 *1543:A 6.87574e-05
12 *320:24 *1544:A 0.000117533
13 *320:24 *442:6 0.000232873
14 *320:24 *584:74 7.30744e-05
15 *320:24 *585:69 0.000656885
16 *320:50 *1076:A 0.000103055
17 *320:50 *1153:B 3.10885e-05
18 *320:50 *1160:A 9.71197e-05
19 *320:50 *1297:A2 9.71197e-05
20 *320:50 *1306:B 1.62539e-05
21 *320:50 *451:48 0.00010096
22 *320:50 *451:60 7.9208e-05
23 *320:50 *525:60 1.90936e-05
24 *1129:A3 *320:24 0
25 *1143:B *320:50 0.000159784
26 *1155:B *320:24 9.90431e-05
27 *1161:B *320:50 5.52302e-05
28 *1164:B *320:50 0.000109344
29 *1167:B *320:50 7.32955e-05
30 *1171:C *320:50 0.000286769
31 *1316:A1 *320:50 0
32 *1337:A1 *320:50 5.80704e-05
33 *1355:A2 *320:50 1.97381e-05
34 *176:24 *320:50 0.000148105
35 *185:8 *320:50 0.000171171
36 *187:39 *320:50 8.82117e-05
37 *192:6 *320:50 1.98839e-05
38 *211:48 *320:50 6.35864e-05
39 *213:26 *320:24 0.000770751
40 *213:26 *320:50 0.000246847
41 *294:22 *320:50 7.95584e-05
42 *317:14 *320:50 0
43 *319:12 *320:24 8.14581e-05
*RES
1 *1319:X *320:24 47.1393 
2 *320:24 *320:50 43.1786 
3 *320:50 *1320:B1_N 9.3 
*END

*D_NET *321 0.00131871
*CONN
*I *1321:B I *D sky130_fd_sc_hd__and2_2
*I *1335:B I *D sky130_fd_sc_hd__nand3_2
*I *1320:X O *D sky130_fd_sc_hd__o21ba_2
*CAP
1 *1321:B 0.000125939
2 *1335:B 0
3 *1320:X 8.36953e-05
4 *321:12 0.000209634
5 *1321:B *1335:C 5.49544e-05
6 *1321:B *528:30 0.000370528
7 *321:12 *1335:C 0.00016584
8 *1143:B *321:12 8.36362e-06
9 *1321:A *1321:B 9.97055e-05
10 *1335:A *1321:B 2.29677e-05
11 *1337:A1 *321:12 0.00016584
12 *294:22 *321:12 1.12387e-05
*RES
1 *1320:X *321:12 20.7821 
2 *321:12 *1335:B 9.3 
3 *321:12 *1321:B 13.5679 
*END

*D_NET *322 0.0108012
*CONN
*I *1352:B I *D sky130_fd_sc_hd__or3_2
*I *1337:C1 I *D sky130_fd_sc_hd__o211ai_2
*I *1399:A2 I *D sky130_fd_sc_hd__o211a_2
*I *1321:X O *D sky130_fd_sc_hd__and2_2
*CAP
1 *1352:B 0
2 *1337:C1 8.0907e-05
3 *1399:A2 0.000281714
4 *1321:X 0
5 *322:56 0.00166332
6 *322:8 0.000895186
7 *322:4 0.00219589
8 *1337:C1 *1336:A 9.60808e-05
9 *1337:C1 *1400:B1 2.57858e-05
10 *1337:C1 *1545:A 5.33005e-05
11 *1337:C1 *362:14 5.33005e-05
12 *1399:A2 *1399:A1 1.40727e-05
13 *1399:A2 *1399:B1 1.47127e-05
14 *1399:A2 *362:14 2.15666e-05
15 *1399:A2 *600:27 0.000100338
16 *322:8 *1399:B1 8.81471e-06
17 *322:8 *336:6 2.2351e-05
18 *322:8 *336:16 2.84109e-05
19 *322:8 *528:30 0.000554828
20 *322:56 *1142:A 2.89114e-05
21 *322:56 *1338:A 9.41642e-05
22 *322:56 *1346:A 0.000262071
23 *322:56 *1351:A1 0.000457198
24 *322:56 *1351:A2 2.90311e-05
25 *322:56 *1365:B1 0.000258257
26 *322:56 *1408:B 0.000184745
27 *322:56 *1444:GATE 0.000355002
28 *322:56 *1573:A 9.41642e-05
29 *322:56 *1585:A 4.28106e-05
30 *322:56 *477:16 5.33005e-05
31 *322:56 *528:30 0.000356028
32 *322:56 *528:70 0.000140933
33 *322:56 *553:8 0.000210238
34 *322:56 *553:126 0.000479652
35 *322:56 *553:132 0.000111458
36 *1141:A *322:56 8.25843e-06
37 *1296:B *322:56 0.000162326
38 *1382:B1 *322:56 0.000166473
39 *79:20 *322:56 0.000147508
40 *83:28 *322:56 0.000815361
41 *182:20 *322:56 1.74795e-05
42 *297:6 *322:56 0.00021528
*RES
1 *1321:X *322:4 9.3 
2 *322:4 *322:8 7.53571 
3 *322:8 *1399:A2 22.3357 
4 *322:8 *1337:C1 20.175 
5 *322:4 *322:56 48.3214 
6 *322:56 *1352:B 9.3 
*END

*D_NET *323 0.0022524
*CONN
*I *1323:B I *D sky130_fd_sc_hd__or2_2
*I *1322:X O *D sky130_fd_sc_hd__mux4_2
*CAP
1 *1323:B 0.000540823
2 *1322:X 0.000540823
3 *1323:B *1223:A 7.1724e-05
4 *1323:B *1224:A 0
5 *1323:B *1324:S 0.000340052
6 *1323:B *1328:A1 0.000184719
7 *1323:B *1328:B1 0.000230431
8 *1323:B *1599:clk 1.92756e-05
9 *1323:B *441:8 6.09476e-05
10 *1323:B *441:21 0.000153156
11 *1323:B *589:120 5.71472e-05
12 *1327:B *1323:B 0
13 *130:80 *1323:B 5.33005e-05
*RES
1 *1322:X *1323:B 40.3321 
*END

*D_NET *324 0.000980935
*CONN
*I *1328:A1 I *D sky130_fd_sc_hd__a31o_2
*I *1323:X O *D sky130_fd_sc_hd__or2_2
*CAP
1 *1328:A1 0.000280567
2 *1323:X 0.000280567
3 *1328:A1 *1599:clk 5.74325e-05
4 *1328:A1 *441:21 5.26224e-05
5 *1328:A1 *441:23 9.61156e-05
6 *1323:B *1328:A1 0.000184719
7 *130:80 *1328:A1 6.05161e-06
8 *130:93 *1328:A1 2.28598e-05
*RES
1 *1323:X *1328:A1 32.4571 
*END

*D_NET *325 0.00213233
*CONN
*I *1325:B I *D sky130_fd_sc_hd__or2_2
*I *1324:X O *D sky130_fd_sc_hd__mux2_1
*CAP
1 *1325:B 0.000536207
2 *1324:X 0.000536207
3 *1325:B *1204:A 1.74352e-05
4 *1325:B *1206:A 0.000869154
5 *1325:B *1332:A2 0.000173332
6 *1325:B *1460:RESET_B 0
*RES
1 *1324:X *1325:B 38.6 
*END

*D_NET *326 0.00231877
*CONN
*I *1328:A2 I *D sky130_fd_sc_hd__a31o_2
*I *1325:X O *D sky130_fd_sc_hd__or2_2
*CAP
1 *1328:A2 0.000401569
2 *1325:X 0.000401569
3 *1328:A2 *1203:A 7.94068e-05
4 *1328:A2 *1206:A 9.49949e-05
5 *1328:A2 *1327:A 0.000274807
6 *1328:A2 *441:23 0.000114587
7 *1328:A2 *590:42 0.000225616
8 *1327:B *1328:A2 0
9 *130:14 *1328:A2 0.00043941
10 *130:80 *1328:A2 0.000286809
*RES
1 *1325:X *1328:A2 38.225 
*END

*D_NET *327 0.00203512
*CONN
*I *1327:C I *D sky130_fd_sc_hd__or3_2
*I *1326:X O *D sky130_fd_sc_hd__mux2_1
*CAP
1 *1327:C 0.000537502
2 *1326:X 0.000537502
3 *1327:C *1129:B2 0
4 *1327:C *1231:B 0.000123589
5 *1327:C *1327:A 5.52302e-05
6 *1327:C *1328:A3 9.77074e-05
7 *1327:C *1456:CLK 0
8 *1327:C *427:46 9.07065e-05
9 *1327:C *589:120 5.65955e-05
10 *1327:C *594:46 9.60875e-05
11 *1232:B *1327:C 0.000362103
12 *242:20 *1327:C 7.80929e-05
*RES
1 *1326:X *1327:C 39.8321 
*END

*D_NET *328 0.000708405
*CONN
*I *1328:A3 I *D sky130_fd_sc_hd__a31o_2
*I *1327:X O *D sky130_fd_sc_hd__or3_2
*CAP
1 *1328:A3 0.000231022
2 *1327:X 0.000231022
3 *1328:A3 *1327:A 1.55885e-05
4 *1327:B *1328:A3 9.39125e-05
5 *1327:C *1328:A3 9.77074e-05
6 *130:80 *1328:A3 3.91528e-05
*RES
1 *1327:X *1328:A3 31.1179 
*END

*D_NET *329 0.000875852
*CONN
*I *1334:B1 I *D sky130_fd_sc_hd__o21ai_2
*I *1328:X O *D sky130_fd_sc_hd__a31o_2
*CAP
1 *1334:B1 0.000176102
2 *1328:X 0.000176102
3 *1334:B1 *1334:A2 0
4 *1334:B1 *1439:C1 1.02504e-05
5 *1334:B1 *335:26 2.06178e-05
6 *1334:B1 *441:23 4.88637e-05
7 *1334:B1 *591:41 0
8 *1334:A1 *1334:B1 5.80706e-06
9 *133:20 *1334:B1 0.000212494
10 *179:18 *1334:B1 0.000225616
*RES
1 *1328:X *1334:B1 32.0286 
*END

*D_NET *330 0.00170369
*CONN
*I *1332:A2 I *D sky130_fd_sc_hd__o22a_2
*I *1329:X O *D sky130_fd_sc_hd__mux4_2
*CAP
1 *1332:A2 0.000463137
2 *1329:X 0.000463137
3 *1332:A2 *1203:A 0.0001736
4 *1332:A2 *1203:B 7.85155e-05
5 *1332:A2 *1322:S0 0.000186662
6 *1332:A2 *1460:RESET_B 0
7 *1332:A2 *440:10 2.4454e-05
8 *1332:A2 *440:26 1.94945e-05
9 *1206:B *1332:A2 0
10 *1325:A *1332:A2 6.95546e-05
11 *1325:B *1332:A2 0.000173332
12 *1462:D *1332:A2 0
13 *130:14 *1332:A2 0
14 *130:22 *1332:A2 3.39451e-05
15 *173:10 *1332:A2 1.78536e-05
*RES
1 *1329:X *1332:A2 37.3857 
*END

*D_NET *331 0.00172886
*CONN
*I *1333:A3 I *D sky130_fd_sc_hd__o31a_2
*I *1330:X O *D sky130_fd_sc_hd__mux2_1
*CAP
1 *1333:A3 0.000630312
2 *1330:X 0.000630312
3 *1333:A3 *1208:A 5.73974e-05
4 *1333:A3 *1330:A1 0.000122101
5 *1333:A3 *1333:A1 4.22135e-06
6 *1333:A3 *1333:B1 3.28967e-05
7 *1333:A3 *1559:A 1.92905e-05
8 *1333:A3 *466:25 8.6229e-06
9 *1333:A3 *590:30 2.86754e-05
10 *1333:A3 *593:34 0.000183726
11 *1132:A *1333:A3 4.38529e-06
12 *1333:A2 *1333:A3 6.91613e-06
*RES
1 *1330:X *1333:A3 36.2964 
*END

*D_NET *332 0.00313508
*CONN
*I *1332:B1 I *D sky130_fd_sc_hd__o22a_2
*I *1331:X O *D sky130_fd_sc_hd__mux2_1
*CAP
1 *1332:B1 0.000518049
2 *1331:X 0.000518049
3 *1332:B1 *1208:A 7.32272e-05
4 *1332:B1 *1220:A 5.42436e-05
5 *1332:B1 *1329:A1 0.000457457
6 *1332:B1 *1331:A1 0.000223886
7 *1332:B1 *1331:S 0.000150618
8 *1332:B1 *1460:RESET_B 8.9338e-05
9 *1332:B1 *1559:A 0
10 *1332:B1 *427:88 4.65258e-05
11 *1332:B1 *590:30 0.000269311
12 *1332:B1 *593:34 0.000734376
*RES
1 *1331:X *1332:B1 44.225 
*END

*D_NET *333 0.000363732
*CONN
*I *1333:B1 I *D sky130_fd_sc_hd__o31a_2
*I *1332:X O *D sky130_fd_sc_hd__o22a_2
*CAP
1 *1333:B1 9.44314e-05
2 *1332:X 9.44314e-05
3 *1333:B1 *466:25 9.55323e-06
4 *1333:A2 *1333:B1 3.27359e-05
5 *1333:A3 *1333:B1 3.28967e-05
6 *130:32 *1333:B1 7.91118e-05
7 *173:10 *1333:B1 2.05715e-05
*RES
1 *1332:X *1333:B1 29.5464 
*END

*D_NET *334 0.00243942
*CONN
*I *1334:A2 I *D sky130_fd_sc_hd__o21ai_2
*I *1333:X O *D sky130_fd_sc_hd__o31a_2
*CAP
1 *1334:A2 0.000432688
2 *1333:X 0.000432688
3 *1334:A2 *1070:A 0
4 *1334:A2 *1333:A1 2.11419e-05
5 *1334:A2 *335:26 5.7903e-06
6 *1334:A2 *584:74 0.000125827
7 *1334:A2 *586:30 0
8 *1334:A2 *588:26 0
9 *1334:A2 *590:36 0.00078561
10 *1334:A2 *591:41 2.28544e-05
11 *1334:A2 *592:22 0.000481229
12 *1334:A2 *592:73 0.000116011
13 *1334:A2 *594:34 9.77021e-06
14 *1334:A1 *1334:A2 5.80706e-06
15 *1334:B1 *1334:A2 0
*RES
1 *1333:X *1334:A2 36.9817 
*END

*D_NET *335 0.0112719
*CONN
*I *1335:C I *D sky130_fd_sc_hd__nand3_2
*I *1334:Y O *D sky130_fd_sc_hd__o21ai_2
*CAP
1 *1335:C 0.00223575
2 *1334:Y 0.000949197
3 *335:26 0.00318495
4 *1335:C *1398:A2 0.00021028
5 *1335:C *1399:A1 0.000509348
6 *1335:C *355:18 0.00142797
7 *1335:C *429:50 0.000409766
8 *1335:C *575:30 2.84241e-06
9 *1335:C *584:103 0
10 *1335:C *586:74 0
11 *1335:C *590:115 0
12 *1335:C *593:104 0.00053378
13 *335:26 *1599:clk 2.06112e-05
14 *335:26 *415:22 7.32905e-05
15 *335:26 *575:30 5.81961e-05
16 *335:26 *584:74 0.00042641
17 *335:26 *592:73 5.56472e-05
18 *335:26 *593:83 0
19 *1234:B *335:26 3.47641e-06
20 *1281:A2 *335:26 9.83388e-05
21 *1317:B *335:26 9.32979e-05
22 *1321:A *1335:C 1.32056e-05
23 *1321:B *1335:C 5.49544e-05
24 *1334:A2 *335:26 5.7903e-06
25 *1334:B1 *335:26 2.06178e-05
26 *1335:A *1335:C 5.49544e-05
27 *1337:A1 *1335:C 1.5929e-05
28 *1359:B1 *1335:C 0.000233486
29 *130:93 *335:26 0.000142856
30 *174:20 *335:26 0.000113286
31 *317:14 *1335:C 0.000157854
32 *321:12 *1335:C 0.00016584
*RES
1 *1334:Y *335:26 44.2932 
2 *335:26 *1335:C 26.6237 
*END

*D_NET *336 0.00277842
*CONN
*I *1399:B1 I *D sky130_fd_sc_hd__o211a_2
*I *1372:A I *D sky130_fd_sc_hd__and2_2
*I *1337:A2 I *D sky130_fd_sc_hd__o211ai_2
*I *1335:Y O *D sky130_fd_sc_hd__nand3_2
*CAP
1 *1399:B1 0.000417015
2 *1372:A 7.20836e-05
3 *1337:A2 2.2335e-05
4 *1335:Y 2.85686e-05
5 *336:16 0.000228461
6 *336:6 0.000579626
7 *1337:A2 *1545:A 0
8 *1372:A *362:14 0.00016074
9 *1372:A *590:115 0.000136892
10 *1399:B1 *1399:A1 2.09697e-05
11 *1399:B1 *600:27 0.000343735
12 *336:6 *528:30 5.49544e-05
13 *336:16 *1336:A 0.000167741
14 *336:16 *1337:B1 0.00014699
15 *336:16 *362:14 9.34489e-05
16 *336:16 *528:30 9.22222e-06
17 *336:16 *590:115 9.56233e-05
18 *1165:A2 *1399:B1 7.8178e-06
19 *1335:A *1399:B1 3.45371e-05
20 *1335:A *336:6 2.84109e-05
21 *1337:A1 *1372:A 5.49544e-05
22 *1399:A2 *1399:B1 1.47127e-05
23 *322:8 *1399:B1 8.81471e-06
24 *322:8 *336:6 2.2351e-05
25 *322:8 *336:16 2.84109e-05
*RES
1 *1335:Y *336:6 10.2464 
2 *336:6 *336:16 13.5536 
3 *336:16 *1337:A2 9.72857 
4 *336:16 *1372:A 12.3 
5 *336:6 *1399:B1 24.7107 
*END

*D_NET *337 0.000383408
*CONN
*I *1337:B1 I *D sky130_fd_sc_hd__o211ai_2
*I *1336:X O *D sky130_fd_sc_hd__or2_2
*CAP
1 *1337:B1 0.000103956
2 *1336:X 0.000103956
3 *1337:B1 *1336:A 1.31516e-05
4 *1337:B1 *528:30 9.54798e-06
5 *1337:B1 *599:10 5.80706e-06
6 *1337:A1 *1337:B1 0
7 *336:16 *1337:B1 0.00014699
*RES
1 *1336:X *1337:B1 29.85 
*END

*D_NET *338 0.00726298
*CONN
*I *1365:A2 I *D sky130_fd_sc_hd__a31o_2
*I *1362:A1 I *D sky130_fd_sc_hd__a21bo_2
*I *1337:Y O *D sky130_fd_sc_hd__o211ai_2
*CAP
1 *1365:A2 4.99043e-05
2 *1362:A1 1.0656e-05
3 *1337:Y 0.00191216
4 *338:14 0.00197272
5 *1362:A1 *1416:A 5.7836e-06
6 *1362:A1 *553:37 2.06112e-05
7 *1365:A2 *1416:A 3.68759e-05
8 *1365:A2 *553:37 0.000104044
9 *338:14 *1382:A2 0.000609544
10 *338:14 *362:22 0.00143928
11 *338:14 *372:20 0.000855042
12 *338:14 *588:84 8.87141e-05
13 *338:14 *590:115 0.000102007
14 *338:14 *599:10 0
15 *1337:A1 *338:14 5.56296e-05
16 *81:18 *338:14 0
17 *222:14 *338:14 0
*RES
1 *1337:Y *338:14 27.4604 
2 *338:14 *1362:A1 14.0768 
3 *338:14 *1365:A2 15.2911 
*END

*D_NET *339 0.00158834
*CONN
*I *1346:A I *D sky130_fd_sc_hd__and4_2
*I *1338:X O *D sky130_fd_sc_hd__xor2_2
*CAP
1 *1346:A 0.000459192
2 *1338:X 0.000459192
3 *1346:A *1351:A1 0
4 *1346:A *1583:A 0
5 *1346:A *387:12 0.000120342
6 *1346:A *417:64 0.000142856
7 *1346:A *492:8 5.62995e-05
8 *1296:B *1346:A 8.49143e-05
9 *79:20 *1346:A 3.47641e-06
10 *322:56 *1346:A 0.000262071
*RES
1 *1338:X *1346:A 35.2607 
*END

*D_NET *340 0.00197159
*CONN
*I *1345:A I *D sky130_fd_sc_hd__and4_2
*I *1339:Y O *D sky130_fd_sc_hd__nand2_2
*CAP
1 *1345:A 0.000279544
2 *1339:Y 0.000279544
3 *1345:A *1188:A 2.44318e-05
4 *1345:A *1339:B 0.000120504
5 *1345:A *1345:B 0.00044193
6 *1345:A *1345:D 2.12087e-05
7 *1345:A *1582:A 0
8 *1345:A *387:12 0.000615111
9 *1345:A *492:12 0
10 *1188:B *1345:A 0.000149554
11 *1189:B *1345:A 2.99028e-05
12 *215:24 *1345:A 9.86094e-06
*RES
1 *1339:Y *1345:A 36.6357 
*END

*D_NET *341 0.000971737
*CONN
*I *1345:B I *D sky130_fd_sc_hd__and4_2
*I *1340:X O *D sky130_fd_sc_hd__or2_2
*CAP
1 *1345:B 0.000103282
2 *1340:X 0.000103282
3 *1345:B *1188:A 9.90431e-05
4 *1345:B *1339:B 1.54142e-05
5 *1345:B *1340:B 5.52238e-05
6 *1345:B *1345:D 0.000100262
7 *1345:B *1346:D 5.33005e-05
8 *1345:A *1345:B 0.00044193
*RES
1 *1340:X *1345:B 22.8321 
*END

*D_NET *342 0.00222719
*CONN
*I *1346:B I *D sky130_fd_sc_hd__and4_2
*I *1341:X O *D sky130_fd_sc_hd__xor2_2
*CAP
1 *1346:B 0.000734118
2 *1341:X 0.000734118
3 *1346:B *1341:A 0
4 *1346:B *1341:B 4.99927e-05
5 *1346:B *1506:CLK 0.000143651
6 *1346:B *1582:A 4.15766e-05
7 *1346:B *387:12 1.58884e-05
8 *1346:B *417:64 0.000279558
9 *1346:B *492:8 0.00018077
10 *1346:B *571:53 0
11 *1506:D *1346:B 3.04085e-05
12 *296:26 *1346:B 1.71096e-05
*RES
1 *1341:X *1346:B 41.2429 
*END

*D_NET *343 0.00029944
*CONN
*I *1345:C I *D sky130_fd_sc_hd__and4_2
*I *1342:Y O *D sky130_fd_sc_hd__nand2_2
*CAP
1 *1345:C 7.15202e-05
2 *1342:Y 7.15202e-05
3 *1345:C *1345:D 4.84486e-05
4 *1345:C *1346:C 3.09531e-05
5 *1345:C *1539:A 5.52302e-05
6 *1345:C *446:58 2.1768e-05
*RES
1 *1342:Y *1345:C 29.475 
*END

*D_NET *344 0.000709456
*CONN
*I *1345:D I *D sky130_fd_sc_hd__and4_2
*I *1343:X O *D sky130_fd_sc_hd__or2_2
*CAP
1 *1345:D 0.000179461
2 *1343:X 0.000179461
3 *1345:D *1342:A 2.44318e-05
4 *1345:D *1342:B 5.71472e-05
5 *1345:D *1346:C 0
6 *1345:D *1539:A 9.90367e-05
7 *1345:D *494:14 0
8 *1345:A *1345:D 2.12087e-05
9 *1345:B *1345:D 0.000100262
10 *1345:C *1345:D 4.84486e-05
*RES
1 *1343:X *1345:D 31.5464 
*END

*D_NET *345 0.00235381
*CONN
*I *1346:C I *D sky130_fd_sc_hd__and4_2
*I *1344:X O *D sky130_fd_sc_hd__xor2_2
*CAP
1 *1346:C 0.000736638
2 *1344:X 0.000736638
3 *1346:C *1175:A 4.59075e-05
4 *1346:C *1175:B 4.1331e-06
5 *1346:C *1184:B 0.000416414
6 *1346:C *1346:D 0.000236252
7 *1346:C *387:12 0
8 *1346:C *445:64 7.48091e-05
9 *1346:C *449:51 0
10 *1346:C *572:49 4.46186e-06
11 *1187:A1 *1346:C 6.76043e-05
12 *1345:C *1346:C 3.09531e-05
13 *1345:D *1346:C 0
14 *215:24 *1346:C 0
*RES
1 *1344:X *1346:C 41.9571 
*END

*D_NET *346 0.000691021
*CONN
*I *1346:D I *D sky130_fd_sc_hd__and4_2
*I *1345:X O *D sky130_fd_sc_hd__and4_2
*CAP
1 *1346:D 0.000143307
2 *1345:X 0.000143307
3 *1346:D *1583:A 2.19226e-05
4 *1346:D *492:12 9.29326e-05
5 *1345:B *1346:D 5.33005e-05
6 *1346:C *1346:D 0.000236252
*RES
1 *1345:X *1346:D 31.2964 
*END

*D_NET *347 0.00192718
*CONN
*I *1351:A1 I *D sky130_fd_sc_hd__a311o_2
*I *1346:X O *D sky130_fd_sc_hd__and4_2
*CAP
1 *1351:A1 0.000462274
2 *1346:X 0.000462274
3 *1351:A1 *1351:A2 4.53031e-05
4 *1351:A1 *1351:C1 4.1331e-06
5 *1351:A1 *1371:A1 0.000349875
6 *1351:A1 *1583:A 4.70852e-05
7 *1351:A1 *417:64 9.90367e-05
8 *1351:A1 *553:37 0
9 *1346:A *1351:A1 0
10 *322:56 *1351:A1 0.000457198
*RES
1 *1346:X *1351:A1 37.7786 
*END

*D_NET *348 0.000558661
*CONN
*I *1351:A2 I *D sky130_fd_sc_hd__a311o_2
*I *1347:X O *D sky130_fd_sc_hd__xor2_2
*CAP
1 *1351:A2 0.000178328
2 *1347:X 0.000178328
3 *1351:A2 *1351:A3 5.52302e-05
4 *1347:B *1351:A2 0
5 *1351:A1 *1351:A2 4.53031e-05
6 *79:20 *1351:A2 1.38167e-05
7 *81:18 *1351:A2 4.11884e-05
8 *84:24 *1351:A2 1.74352e-05
9 *322:56 *1351:A2 2.90311e-05
*RES
1 *1347:X *1351:A2 31.4036 
*END

*D_NET *349 0.00167599
*CONN
*I *1351:A3 I *D sky130_fd_sc_hd__a311o_2
*I *1348:X O *D sky130_fd_sc_hd__xor2_2
*CAP
1 *1351:A3 0.000392424
2 *1348:X 0.000392424
3 *1351:A3 *1347:A 5.78426e-05
4 *1351:A3 *1574:A 3.32091e-05
5 *1351:A3 *535:39 9.33578e-05
6 *1351:A2 *1351:A3 5.52302e-05
7 *79:20 *1351:A3 0.000266479
8 *84:24 *1351:A3 0.000243038
9 *186:33 *1351:A3 0.000141985
*RES
1 *1348:X *1351:A3 37.3857 
*END

*D_NET *350 0.00054503
*CONN
*I *1350:D I *D sky130_fd_sc_hd__or4_2
*I *1349:X O *D sky130_fd_sc_hd__or4_2
*CAP
1 *1350:D 0.000142112
2 *1349:X 0.000142112
3 *1350:D *1576:A 0.00010096
4 *103:30 *1350:D 0.000159846
*RES
1 *1349:X *1350:D 21.6179 
*END

*D_NET *351 0.00392507
*CONN
*I *1351:B1 I *D sky130_fd_sc_hd__a311o_2
*I *1350:X O *D sky130_fd_sc_hd__or4_2
*CAP
1 *1351:B1 0.00122555
2 *1350:X 0.00122555
3 *1351:B1 *1414:A 2.6269e-05
4 *1351:B1 *1418:A 8.12154e-05
5 *1351:B1 *1418:B 5.33005e-05
6 *1351:B1 *1518:CLK 0
7 *1351:B1 *1578:A 0.000143171
8 *1351:B1 *417:72 5.49544e-05
9 *1351:B1 *417:158 0.000100831
10 *1351:B1 *417:171 3.34295e-05
11 *1590:A *1351:B1 6.85372e-05
12 *84:24 *1351:B1 5.04589e-05
13 *103:30 *1351:B1 0.000861814
*RES
1 *1350:X *1351:B1 49.8143 
*END

*D_NET *352 0.00173984
*CONN
*I *1352:C I *D sky130_fd_sc_hd__or3_2
*I *1351:X O *D sky130_fd_sc_hd__a311o_2
*CAP
1 *1352:C 0.000468309
2 *1351:X 0.000468309
3 *1352:C *1352:A 4.26565e-05
4 *1352:C *417:68 0.000142718
5 *1352:C *477:35 5.1588e-05
6 *84:24 *1352:C 0.000566258
*RES
1 *1351:X *1352:C 35.0107 
*END

*D_NET *353 0.00266804
*CONN
*I *1362:A2 I *D sky130_fd_sc_hd__a21bo_2
*I *1373:A1 I *D sky130_fd_sc_hd__o21ai_2
*I *1392:B I *D sky130_fd_sc_hd__nor2_2
*I *1384:A1 I *D sky130_fd_sc_hd__o21ai_2
*I *1352:X O *D sky130_fd_sc_hd__or3_2
*CAP
1 *1362:A2 8.74333e-05
2 *1373:A1 0.000114862
3 *1392:B 0.000126886
4 *1384:A1 0.000119056
5 *1352:X 0.000387921
6 *353:8 0.000606433
7 *1362:A2 *1412:B 0.000136124
8 *1362:A2 *1416:B 0.000140088
9 *1373:A1 *1384:B1 5.65955e-05
10 *1373:A1 *1416:B 0.000140856
11 *1373:A1 *372:20 1.51571e-05
12 *1384:A1 *1396:A2 0
13 *1384:A1 *1416:B 0.000149911
14 *1384:A1 *355:18 5.7616e-05
15 *1392:B *1412:A 0.000126639
16 *353:8 *1365:A3 9.66977e-05
17 *353:8 *1412:A 0.000110348
18 *353:8 *1412:B 4.43256e-05
19 *80:30 *1362:A2 9.61455e-05
20 *80:30 *1373:A1 5.49489e-05
*RES
1 *1352:X *353:8 14.3714 
2 *353:8 *1384:A1 20.2464 
3 *353:8 *1392:B 11.9071 
4 *1384:A1 *1373:A1 19.9571 
5 *1373:A1 *1362:A2 21.6 
*END

*D_NET *354 0.00505123
*CONN
*I *1376:B I *D sky130_fd_sc_hd__nand2_2
*I *1354:C I *D sky130_fd_sc_hd__or3_2
*I *1380:A2 I *D sky130_fd_sc_hd__a311o_2
*I *1353:Y O *D sky130_fd_sc_hd__nand2_2
*CAP
1 *1376:B 0.000232378
2 *1354:C 0.000374771
3 *1380:A2 0.000173032
4 *1353:Y 0.000230148
5 *354:25 0.000888104
6 *354:12 0.000684136
7 *1354:C *1402:A 3.18676e-05
8 *1354:C *355:18 0.000105163
9 *1354:C *490:14 3.90513e-05
10 *1354:C *564:111 0.00010096
11 *1376:B *1376:A 0.00010096
12 *1376:B *1377:A1 3.69047e-06
13 *1380:A2 *1379:B 0.000345257
14 *1380:A2 *1525:A 3.69047e-06
15 *354:12 *1353:A 2.89016e-05
16 *354:12 *1374:A 0.00014183
17 *354:12 *1525:A 0.000121573
18 *354:12 *1527:A 0.000123288
19 *354:12 *374:27 0.000440705
20 *354:12 *513:29 0.000310286
21 *354:25 *1378:A2 0
22 *354:25 *1525:A 8.15095e-05
23 *354:25 *1527:A 0.000214342
24 *354:25 *572:73 0
25 *1354:A *1354:C 5.71472e-05
26 *1354:B *1354:C 0
27 *1354:B *354:25 0
28 *1379:A *1380:A2 2.47964e-05
29 *1504:D *1354:C 0.000152333
30 *137:6 *1380:A2 4.1311e-05
*RES
1 *1353:Y *354:12 21.3357 
2 *354:12 *1380:A2 17.9429 
3 *354:12 *354:25 5.74107 
4 *354:25 *1354:C 22.1661 
5 *354:25 *1376:B 18.0232 
*END

*D_NET *355 0.0161998
*CONN
*I *1361:B I *D sky130_fd_sc_hd__nand4_2
*I *1354:X O *D sky130_fd_sc_hd__or3_2
*CAP
1 *1361:B 0
2 *1354:X 0.00479158
3 *355:18 0.00479158
4 *355:18 *1364:A 2.59355e-05
5 *355:18 *1378:A2 0.000518711
6 *355:18 *1383:B 3.98462e-05
7 *355:18 *1384:A2 0.000867056
8 *355:18 *1384:B1 5.33072e-05
9 *355:18 *1387:A3 0
10 *355:18 *1387:B1 6.47608e-05
11 *355:18 *1397:A2 9.15186e-06
12 *355:18 *1399:A1 0.000802223
13 *355:18 *1403:A 2.93017e-05
14 *355:18 *1416:B 1.85668e-05
15 *355:18 *1582:A 0
16 *355:18 *1598:addr[0] 0.00064483
17 *355:18 *1598:addr[5] 0
18 *355:18 *357:10 4.1331e-06
19 *355:18 *364:18 9.60875e-05
20 *355:18 *382:12 1.10978e-05
21 *355:18 *528:30 0.000246305
22 *355:18 *571:53 0.000191196
23 *355:18 *586:74 2.11419e-05
24 *1335:C *355:18 0.00142797
25 *1354:A *355:18 1.02936e-05
26 *1354:C *355:18 0.000105163
27 *1384:A1 *355:18 5.7616e-05
28 *1396:C1 *355:18 6.37883e-06
29 *1542:A *355:18 3.63452e-05
30 *80:30 *355:18 0
31 *82:20 *355:18 0.0004914
32 *296:14 *355:18 0.000837796
33 *296:26 *355:18 0
*RES
1 *1354:X *355:18 48.7512 
2 *355:18 *1361:B 13.8 
*END

*D_NET *356 0.000997379
*CONN
*I *1356:A1 I *D sky130_fd_sc_hd__mux2_1
*I *1355:Y O *D sky130_fd_sc_hd__o21bai_2
*CAP
1 *1356:A1 0.000261193
2 *1355:Y 0.000261193
3 *1356:A1 *1153:B 4.16899e-05
4 *1356:A1 *585:106 0.000232399
5 *1165:B1 *1356:A1 0.000123673
6 *1166:B1 *1356:A1 6.57032e-05
7 *1355:A2 *1356:A1 0
8 *190:12 *1356:A1 1.15281e-05
*RES
1 *1355:Y *1356:A1 24.5107 
*END

*D_NET *357 0.00109516
*CONN
*I *1397:A2 I *D sky130_fd_sc_hd__a31o_2
*I *1361:C I *D sky130_fd_sc_hd__nand4_2
*I *1356:X O *D sky130_fd_sc_hd__mux2_1
*CAP
1 *1397:A2 0.000187831
2 *1361:C 0
3 *1356:X 0.000169772
4 *357:10 0.000357603
5 *1397:A2 *1398:A1 0
6 *1397:A2 *1398:A2 0.000141265
7 *1397:A2 *586:74 0
8 *357:10 *1153:B 1.49296e-05
9 *357:10 *1361:D 7.47077e-05
10 *357:10 *586:74 0
11 *1166:B1 *357:10 2.27416e-05
12 *1397:A1 *1397:A2 6.07037e-07
13 *1400:A1 *1397:A2 1.39726e-05
14 *125:87 *1397:A2 7.56138e-05
15 *208:10 *357:10 2.28335e-05
16 *355:18 *1397:A2 9.15186e-06
17 *355:18 *357:10 4.1331e-06
*RES
1 *1356:X *357:10 16.6929 
2 *357:10 *1361:C 13.8 
3 *357:10 *1397:A2 17.4696 
*END

*D_NET *358 0.00207651
*CONN
*I *1360:B I *D sky130_fd_sc_hd__and4b_2
*I *1357:X O *D sky130_fd_sc_hd__xor2_2
*CAP
1 *1360:B 0.000408181
2 *1357:X 0.000408181
3 *1360:B *1153:B 0.000270069
4 *1360:B *361:10 0.000109462
5 *1360:B *526:93 0.000386633
6 *1130:B *1360:B 0.000351392
7 *1156:B *1360:B 0
8 *1168:C *1360:B 3.18676e-05
9 *1172:C *1360:B 0.000110725
10 *204:10 *1360:B 0
*RES
1 *1357:X *1360:B 37.9393 
*END

*D_NET *359 0.00151829
*CONN
*I *1360:C I *D sky130_fd_sc_hd__and4b_2
*I *1358:X O *D sky130_fd_sc_hd__or2_2
*CAP
1 *1360:C 0.000569174
2 *1358:X 0.000569174
3 *1360:C *1430:A 1.08359e-05
4 *1360:C *1440:A1 9.99668e-05
5 *1360:C *1440:A2 6.05161e-06
6 *1360:C *1440:B1 2.89016e-05
7 *1360:C *1441:C1 0.000132012
8 *1360:C *457:42 9.93501e-05
9 *1360:C *579:56 0
10 *1359:B1 *1360:C 2.8266e-06
11 *195:8 *1360:C 0
*RES
1 *1358:X *1360:C 36.3321 
*END

*D_NET *360 0.000675149
*CONN
*I *1360:D I *D sky130_fd_sc_hd__and4b_2
*I *1359:Y O *D sky130_fd_sc_hd__a21oi_2
*CAP
1 *1360:D 0.00016051
2 *1359:Y 0.00016051
3 *1360:D *457:42 6.7543e-05
4 *1130:A_N *1360:D 0.000225609
5 *1359:B1 *1360:D 0
6 *209:16 *1360:D 6.09773e-05
*RES
1 *1359:Y *1360:D 31.4214 
*END

*D_NET *361 0.0020389
*CONN
*I *1397:A3 I *D sky130_fd_sc_hd__a31o_2
*I *1361:D I *D sky130_fd_sc_hd__nand4_2
*I *1360:X O *D sky130_fd_sc_hd__and4b_2
*CAP
1 *1397:A3 0.00012785
2 *1361:D 0.000200504
3 *1360:X 0.000140479
4 *361:10 0.000468833
5 *1397:A3 *1398:A1 0.000164556
6 *1397:A3 *1398:A2 1.94945e-05
7 *1397:A3 *1398:B1 1.36825e-05
8 *1397:A3 *526:93 1.73823e-05
9 *361:10 *1153:B 4.43256e-05
10 *361:10 *526:93 4.97918e-05
11 *361:10 *586:74 0
12 *1163:B *361:10 6.10018e-06
13 *1172:C *361:10 0.00018077
14 *1360:B *361:10 0.000109462
15 *1361:A *1361:D 8.41254e-05
16 *1397:A1 *1361:D 2.50022e-05
17 *1397:A1 *1397:A3 4.9663e-06
18 *1500:D *1397:A3 9.51899e-05
19 *204:10 *361:10 4.46186e-06
20 *208:10 *1361:D 1.36181e-05
21 *208:10 *1397:A3 1.36181e-05
22 *208:10 *361:10 5.10822e-05
23 *294:22 *1361:D 0.000128901
24 *357:10 *1361:D 7.47077e-05
*RES
1 *1360:X *361:10 17.8179 
2 *361:10 *1361:D 26.1393 
3 *361:10 *1397:A3 16.6571 
*END

*D_NET *362 0.0180054
*CONN
*I *1372:B I *D sky130_fd_sc_hd__and2_2
*I *1395:A I *D sky130_fd_sc_hd__or3_2
*I *1381:B1 I *D sky130_fd_sc_hd__a21o_2
*I *1390:A I *D sky130_fd_sc_hd__or2_2
*I *1370:B1 I *D sky130_fd_sc_hd__a21o_2
*I *1387:A1 I *D sky130_fd_sc_hd__o311a_2
*I *1378:A1 I *D sky130_fd_sc_hd__o211a_2
*I *1362:B1_N I *D sky130_fd_sc_hd__a21bo_2
*I *1361:Y O *D sky130_fd_sc_hd__nand4_2
*CAP
1 *1372:B 5.54953e-05
2 *1395:A 0.000267859
3 *1381:B1 0
4 *1390:A 0
5 *1370:B1 0.000400493
6 *1387:A1 0
7 *1378:A1 1.60963e-05
8 *1362:B1_N 5.21828e-05
9 *1361:Y 0.00130816
10 *362:103 0.00043896
11 *362:79 0.000492545
12 *362:77 0.00056286
13 *362:62 0.000518127
14 *362:47 0.000674609
15 *362:22 0.0015311
16 *362:14 0.00240248
17 *1362:B1_N *1371:A1 9.01816e-05
18 *1362:B1_N *553:37 4.11725e-05
19 *1370:B1 *1366:C_N 0.000112738
20 *1370:B1 *1387:A3 0
21 *1370:B1 *1389:S 0.000122935
22 *1370:B1 *371:22 5.69084e-05
23 *1370:B1 *513:44 7.62902e-05
24 *1370:B1 *572:73 0.000172413
25 *1378:A1 *1378:B1 7.592e-07
26 *1378:A1 *371:22 9.46695e-06
27 *1395:A *1381:A1 5.75275e-05
28 *1395:A *1395:B 1.74352e-05
29 *1395:A *1395:C 0.000108092
30 *1395:A *1396:B1 0.000229456
31 *1395:A *378:23 2.89016e-05
32 *362:14 *1076:A 2.98375e-05
33 *362:14 *1143:A 0.000174232
34 *362:14 *1336:A 0
35 *362:14 *1399:A1 4.55678e-05
36 *362:14 *1400:B1 0.000150333
37 *362:14 *1545:A 6.19365e-05
38 *362:14 *528:30 0
39 *362:14 *585:94 0.000307349
40 *362:14 *590:115 2.64844e-05
41 *362:14 *600:27 0
42 *362:22 *1382:A2 0.000471407
43 *362:22 *588:84 0.00238197
44 *362:22 *590:115 4.19624e-06
45 *362:47 *1378:B1 3.39053e-05
46 *362:47 *1382:A2 0.000341506
47 *362:47 *1404:B 5.28078e-05
48 *362:47 *1412:B 2.86754e-05
49 *362:47 *371:22 3.76021e-05
50 *362:47 *417:68 0.000177787
51 *362:62 *1403:A 5.47676e-05
52 *362:62 *1582:A 9.83442e-05
53 *362:62 *371:22 9.14042e-05
54 *362:77 *1387:A2 0.000172557
55 *362:77 *371:22 7.18922e-05
56 *362:79 *1387:A2 3.84643e-05
57 *362:79 *371:22 6.47363e-05
58 *362:79 *572:73 7.05375e-05
59 *362:103 *1381:A1 1.85443e-05
60 *362:103 *1403:B 0.000183726
61 *1108:B *1370:B1 9.82841e-05
62 *1337:C1 *362:14 5.33005e-05
63 *1361:A *362:14 0.000166725
64 *1372:A *362:14 0.00016074
65 *1387:C1 *362:77 5.33005e-05
66 *1399:A2 *362:14 2.15666e-05
67 *1505:D *362:77 0.00010326
68 *1542:A *362:22 0.000476783
69 *1542:A *362:47 0.000181911
70 *80:30 *1362:B1_N 2.75386e-05
71 *185:8 *362:14 3.61797e-05
72 *294:22 *362:14 5.72451e-05
73 *336:16 *362:14 9.34489e-05
74 *338:14 *362:22 0.00143928
*RES
1 *1361:Y *362:14 39.2464 
2 *362:14 *362:22 13.3505 
3 *362:22 *1362:B1_N 18.6743 
4 *362:22 *362:47 14.1534 
5 *362:47 *1378:A1 9.87589 
6 *362:47 *362:62 4.51339 
7 *362:62 *1387:A1 9.3 
8 *362:62 *362:77 11.125 
9 *362:77 *362:79 2.55357 
10 *362:79 *1370:B1 23.0857 
11 *362:79 *1390:A 13.8 
12 *362:77 *362:103 7.92857 
13 *362:103 *1381:B1 9.3 
14 *362:103 *1395:A 15.2107 
15 *362:14 *1372:B 10.3357 
*END

*D_NET *363 0.00207898
*CONN
*I *1365:B1 I *D sky130_fd_sc_hd__a31o_2
*I *1382:A1 I *D sky130_fd_sc_hd__a21oi_2
*I *1391:A1 I *D sky130_fd_sc_hd__a21oi_2
*I *1362:X O *D sky130_fd_sc_hd__a21bo_2
*CAP
1 *1365:B1 0.000224141
2 *1382:A1 0
3 *1391:A1 0.000152841
4 *1362:X 3.00113e-05
5 *363:10 0.000269122
6 *363:6 0.000370433
7 *1365:B1 *1352:A 5.52238e-05
8 *1365:B1 *1365:A3 0.000184745
9 *1365:B1 *1371:A1 5.52302e-05
10 *1365:B1 *1573:A 2.44318e-05
11 *1391:A1 *1382:A2 1.01912e-05
12 *1391:A1 *387:12 4.6025e-06
13 *1391:A1 *535:39 0
14 *79:20 *1365:B1 5.42011e-05
15 *79:20 *1391:A1 0.000207566
16 *80:30 *363:6 4.18895e-05
17 *80:30 *363:10 0.000136096
18 *322:56 *1365:B1 0.000258257
*RES
1 *1362:X *363:6 9.83571 
2 *363:6 *363:10 2.19643 
3 *363:10 *1391:A1 21.1571 
4 *363:10 *1382:A1 9.3 
5 *363:6 *1365:B1 24.4786 
*END

*D_NET *364 0.00229268
*CONN
*I *1364:B I *D sky130_fd_sc_hd__nor2_2
*I *1383:B I *D sky130_fd_sc_hd__nor2_2
*I *1363:X O *D sky130_fd_sc_hd__or2_2
*CAP
1 *1364:B 0
2 *1383:B 7.85783e-05
3 *1363:X 0.000718491
4 *364:18 0.00079707
5 *1383:B *1364:A 5.52302e-05
6 *1383:B *1383:A 6.17796e-06
7 *1383:B *1384:A2 3.18676e-05
8 *1383:B *1396:B1 0.000183713
9 *1383:B *365:14 2.28598e-05
10 *364:18 *1363:B 0.000100625
11 *364:18 *477:6 2.07937e-05
12 *364:18 *477:10 3.44618e-05
13 *364:18 *488:18 0.000100831
14 *1354:A *364:18 6.05161e-06
15 *355:18 *1383:B 3.98462e-05
16 *355:18 *364:18 9.60875e-05
*RES
1 *1363:X *364:18 28.55 
2 *364:18 *1383:B 12.3357 
3 *364:18 *1364:B 9.3 
*END

*D_NET *365 0.00490042
*CONN
*I *1365:A3 I *D sky130_fd_sc_hd__a31o_2
*I *1373:A2 I *D sky130_fd_sc_hd__o21ai_2
*I *1364:Y O *D sky130_fd_sc_hd__nor2_2
*CAP
1 *1365:A3 0.000294528
2 *1373:A2 0
3 *1364:Y 0.00110258
4 *365:14 0.00139711
5 *1365:A3 *1352:A 4.43256e-05
6 *1365:A3 *1365:A1 9.90367e-05
7 *1365:A3 *1412:B 0.000161027
8 *1365:A3 *1416:B 0
9 *1365:A3 *372:20 5.86416e-05
10 *1365:A3 *477:16 4.03248e-05
11 *365:14 *1378:B1 3.39401e-05
12 *365:14 *1384:A2 7.49387e-06
13 *365:14 *1384:B1 0.000115013
14 *365:14 *1396:B1 0.000867056
15 *365:14 *1412:B 8.32618e-06
16 *365:14 *1416:B 0.000313051
17 *365:14 *382:12 2.14658e-05
18 *1365:B1 *1365:A3 0.000184745
19 *1383:B *365:14 2.28598e-05
20 *80:30 *365:14 3.22095e-05
21 *353:8 *1365:A3 9.66977e-05
*RES
1 *1364:Y *365:14 29.4786 
2 *365:14 *1373:A2 13.8 
3 *365:14 *1365:A3 20.3893 
*END

*D_NET *366 0.000969893
*CONN
*I *1371:A1 I *D sky130_fd_sc_hd__a21oi_2
*I *1365:X O *D sky130_fd_sc_hd__a31o_2
*CAP
1 *1371:A1 0.000202202
2 *1365:X 0.000202202
3 *1371:A1 *1404:B 0
4 *1371:A1 *1583:A 9.54798e-06
5 *1371:A1 *553:37 6.0655e-05
6 *1351:A1 *1371:A1 0.000349875
7 *1362:B1_N *1371:A1 9.01816e-05
8 *1365:B1 *1371:A1 5.52302e-05
*RES
1 *1365:X *1371:A1 32.8143 
*END

*D_NET *367 0.000617568
*CONN
*I *1370:A1 I *D sky130_fd_sc_hd__a21o_2
*I *1366:X O *D sky130_fd_sc_hd__or3b_2
*CAP
1 *1370:A1 0.000279043
2 *1366:X 0.000279043
3 *1370:A1 *1366:A 0
4 *1370:A1 *1366:C_N 3.69047e-06
5 *1370:A1 *1369:B1 0
6 *1370:A1 *520:16 5.57927e-05
7 *1108:B *1370:A1 0
8 *157:12 *1370:A1 0
*RES
1 *1366:X *1370:A1 32.0107 
*END

*D_NET *368 0.00442077
*CONN
*I *1394:B1 I *D sky130_fd_sc_hd__a31o_2
*I *1380:B1 I *D sky130_fd_sc_hd__a311o_2
*I *1388:A1 I *D sky130_fd_sc_hd__mux2_1
*I *1369:B1 I *D sky130_fd_sc_hd__a21o_2
*I *1367:Y O *D sky130_fd_sc_hd__nor2_2
*CAP
1 *1394:B1 0.000330446
2 *1380:B1 0.000205444
3 *1388:A1 0.000153267
4 *1369:B1 6.88185e-05
5 *1367:Y 0.000353347
6 *368:21 0.000358711
7 *368:19 0.000429891
8 *368:8 0.000521611
9 *1369:B1 *1366:A 1.46717e-05
10 *1369:B1 *1369:A1 0.00017432
11 *1369:B1 *1370:A2 5.56943e-05
12 *1380:B1 *1369:A1 1.52978e-05
13 *1380:B1 *1386:B1 0.000170654
14 *1380:B1 *1388:A0 5.33005e-05
15 *1380:B1 *374:27 1.08359e-05
16 *1380:B1 *515:8 8.46829e-05
17 *1380:B1 *519:34 0.000132516
18 *1388:A1 *1388:A0 0.000227258
19 *1394:B1 *1369:A1 3.17148e-05
20 *1394:B1 *1380:A3 2.09897e-05
21 *1394:B1 *1385:A1 8.359e-05
22 *1394:B1 *374:27 9.55371e-05
23 *1394:B1 *374:44 6.45077e-05
24 *1394:B1 *378:10 0
25 *1394:B1 *518:21 2.81861e-05
26 *368:8 *1375:A 0.000440019
27 *368:8 *1525:A 1.21258e-05
28 *368:8 *1531:A 7.02611e-05
29 *368:19 *1366:A 1.67253e-05
30 *368:19 *1369:A1 0.000164974
31 *368:19 *1370:A2 1.17968e-05
32 *368:19 *518:21 1.95772e-05
33 *1370:A1 *1369:B1 0
*RES
1 *1367:Y *368:8 20.0857 
2 *368:8 *1369:B1 16.05 
3 *368:8 *368:19 2.25 
4 *368:19 *368:21 4.5 
5 *368:21 *1388:A1 11.4786 
6 *368:21 *1380:B1 23.1214 
7 *368:19 *1394:B1 19.7464 
*END

*D_NET *369 0.000259572
*CONN
*I *1369:A2 I *D sky130_fd_sc_hd__a21o_2
*I *1368:X O *D sky130_fd_sc_hd__a21o_2
*CAP
1 *1369:A2 6.54541e-05
2 *1368:X 6.54541e-05
3 *1369:A2 *573:41 0.000128664
*RES
1 *1368:X *1369:A2 29.2429 
*END

*D_NET *370 0.000833506
*CONN
*I *1370:A2 I *D sky130_fd_sc_hd__a21o_2
*I *1369:X O *D sky130_fd_sc_hd__a21o_2
*CAP
1 *1370:A2 0.000227423
2 *1369:X 0.000227423
3 *1370:A2 *1366:A 0.000128154
4 *1370:A2 *1531:A 0.000183015
5 *1369:B1 *1370:A2 5.56943e-05
6 *368:19 *1370:A2 1.17968e-05
*RES
1 *1369:X *1370:A2 32.6714 
*END

*D_NET *371 0.00524437
*CONN
*I *1371:A2 I *D sky130_fd_sc_hd__a21oi_2
*I *1370:X O *D sky130_fd_sc_hd__a21o_2
*CAP
1 *1371:A2 0
2 *1370:X 0.00174015
3 *371:22 0.00174015
4 *371:22 *1366:C_N 0.000196785
5 *371:22 *1378:B1 9.08353e-05
6 *371:22 *1387:A2 4.27338e-05
7 *371:22 *1387:A3 0.000137983
8 *371:22 *1403:B 0.000248493
9 *371:22 *1404:A 6.48285e-05
10 *371:22 *1582:A 3.42509e-05
11 *371:22 *1583:A 0.000186669
12 *371:22 *1598:addr[2] 0
13 *371:22 *513:44 0.000166934
14 *371:22 *520:16 0
15 *371:22 *553:89 1.99198e-05
16 *1370:B1 *371:22 5.69084e-05
17 *1371:B1 *371:22 6.71755e-05
18 *1378:A1 *371:22 9.46695e-06
19 *1396:C1 *371:22 0
20 *1505:D *371:22 7.74262e-05
21 *1542:A *371:22 0
22 *79:20 *371:22 9.80173e-05
23 *362:47 *371:22 3.76021e-05
24 *362:62 *371:22 9.14042e-05
25 *362:77 *371:22 7.18922e-05
26 *362:79 *371:22 6.47363e-05
*RES
1 *1370:X *371:22 48.7464 
2 *371:22 *1371:A2 9.3 
*END

*D_NET *372 0.0086078
*CONN
*I *1373:B1 I *D sky130_fd_sc_hd__o21ai_2
*I *1384:B1 I *D sky130_fd_sc_hd__o21ai_2
*I *1372:X O *D sky130_fd_sc_hd__and2_2
*CAP
1 *1373:B1 0
2 *1384:B1 0.00015064
3 *1372:X 0.00243353
4 *372:20 0.00258417
5 *1384:B1 *1384:A2 8.00517e-05
6 *1384:B1 *1396:B1 0
7 *1384:B1 *1416:B 0.000114801
8 *1384:B1 *1417:A2 5.84154e-05
9 *1384:B1 *382:12 7.24965e-05
10 *372:20 *1152:A 0
11 *372:20 *1382:A2 8.61403e-05
12 *372:20 *1417:A2 9.83442e-05
13 *372:20 *417:68 0
14 *1202:B *372:20 4.46618e-05
15 *1365:A3 *372:20 5.86416e-05
16 *1373:A1 *1384:B1 5.65955e-05
17 *1373:A1 *372:20 1.51571e-05
18 *1396:C1 *1384:B1 1.91745e-05
19 *80:30 *1384:B1 1.15407e-05
20 *80:30 *372:20 5.49489e-05
21 *81:18 *372:20 0.000206527
22 *82:20 *372:20 0
23 *83:28 *372:20 0.000528721
24 *222:14 *372:20 0.000621099
25 *222:31 *372:20 0.000288772
26 *338:14 *372:20 0.000855042
27 *355:18 *1384:B1 5.33072e-05
28 *365:14 *1384:B1 0.000115013
*RES
1 *1372:X *372:20 36.667 
2 *372:20 *1384:B1 23.5679 
3 *372:20 *1373:B1 9.3 
*END

*D_NET *373 0.000515488
*CONN
*I *1378:B1 I *D sky130_fd_sc_hd__o211a_2
*I *1373:Y O *D sky130_fd_sc_hd__o21ai_2
*CAP
1 *1378:B1 0.000156901
2 *1373:Y 0.000156901
3 *1378:B1 *1412:B 1.38247e-05
4 *1378:B1 *417:68 0
5 *1378:A1 *1378:B1 7.592e-07
6 *80:30 *1378:B1 2.84209e-05
7 *362:47 *1378:B1 3.39053e-05
8 *365:14 *1378:B1 3.39401e-05
9 *371:22 *1378:B1 9.08353e-05
*RES
1 *1373:Y *1378:B1 31.0464 
*END

*D_NET *374 0.00447825
*CONN
*I *1393:A1 I *D sky130_fd_sc_hd__a21oi_2
*I *1394:A2 I *D sky130_fd_sc_hd__a31o_2
*I *1380:A3 I *D sky130_fd_sc_hd__a311o_2
*I *1375:B I *D sky130_fd_sc_hd__nand2_2
*I *1374:X O *D sky130_fd_sc_hd__or2_2
*CAP
1 *1393:A1 8.46977e-05
2 *1394:A2 5.40981e-05
3 *1380:A3 4.20594e-05
4 *1375:B 0.000136058
5 *1374:X 0.000162148
6 *374:44 0.000287008
7 *374:27 0.000498359
8 *374:10 0.000606294
9 *1375:B *1353:A 0
10 *1375:B *1353:B 9.69119e-06
11 *1375:B *1367:B 0
12 *1375:B *1377:S 6.03953e-05
13 *1393:A1 *1381:A2 8.45492e-06
14 *1393:A1 *1395:C 0.000147708
15 *1393:A1 *378:23 0.000170233
16 *1394:A2 *1077:A 0
17 *374:10 *1353:B 1.37292e-05
18 *374:10 *1374:A 7.6644e-05
19 *374:10 *1377:S 1.37292e-05
20 *374:10 *513:8 2.56694e-05
21 *374:27 *1353:B 9.90431e-05
22 *374:27 *1367:B 4.27338e-05
23 *374:27 *1386:B1 0.000238331
24 *374:27 *1388:A0 6.05161e-06
25 *374:27 *1527:A 0.000265453
26 *374:27 *1533:A 0.000137983
27 *374:27 *513:29 0.000145425
28 *374:27 *515:6 2.44318e-05
29 *374:27 *515:8 2.14757e-05
30 *374:27 *521:12 2.77289e-05
31 *374:44 *1077:A 2.89016e-05
32 *374:44 *1386:B1 2.26973e-05
33 *374:44 *1395:C 5.52302e-05
34 *374:44 *378:10 0
35 *374:44 *378:23 0
36 *374:44 *516:10 9.0573e-05
37 *374:44 *572:73 0.000159846
38 *1354:B *374:44 3.57844e-05
39 *1380:B1 *374:27 1.08359e-05
40 *1394:A1 *374:44 4.70078e-05
41 *1394:B1 *1380:A3 2.09897e-05
42 *1394:B1 *374:27 9.55371e-05
43 *1394:B1 *374:44 6.45077e-05
44 *136:22 *1393:A1 0
45 *354:12 *374:27 0.000440705
*RES
1 *1374:X *374:10 16.3893 
2 *374:10 *1375:B 16.3536 
3 *374:10 *374:27 19.2232 
4 *374:27 *1380:A3 14.6125 
5 *374:27 *374:44 9.08036 
6 *374:44 *1394:A2 10.3357 
7 *374:44 *1393:A1 20.8536 
*END

*D_NET *375 0.00110835
*CONN
*I *1377:S I *D sky130_fd_sc_hd__mux2_1
*I *1375:Y O *D sky130_fd_sc_hd__nand2_2
*CAP
1 *1377:S 0.000401424
2 *1375:Y 0.000401424
3 *1377:S *1353:A 0.000153047
4 *1377:S *1374:A 7.8327e-05
5 *1377:S *1377:A1 0
6 *1377:S *1378:A2 0
7 *1377:S *517:10 0
8 *1375:B *1377:S 6.03953e-05
9 *374:10 *1377:S 1.37292e-05
*RES
1 *1375:Y *1377:S 35.6536 
*END

*D_NET *376 0.000313964
*CONN
*I *1377:A1 I *D sky130_fd_sc_hd__mux2_1
*I *1376:Y O *D sky130_fd_sc_hd__nand2_2
*CAP
1 *1377:A1 0.000114474
2 *1376:Y 0.000114474
3 *1377:A1 *1376:A 1.15281e-05
4 *1377:A1 *517:10 6.97972e-05
5 *1376:B *1377:A1 3.69047e-06
6 *1377:S *1377:A1 0
*RES
1 *1376:Y *1377:A1 29.7786 
*END

*D_NET *377 0.00482668
*CONN
*I *1378:A2 I *D sky130_fd_sc_hd__o211a_2
*I *1377:X O *D sky130_fd_sc_hd__mux2_1
*CAP
1 *1378:A2 0.00195597
2 *1377:X 0.00195597
3 *1378:A2 *1382:A2 0
4 *1378:A2 *1582:A 5.47058e-05
5 *1378:A2 *1598:addr[5] 0
6 *1378:A2 *417:68 0
7 *1378:A2 *517:10 5.57914e-05
8 *1378:A2 *571:53 0.000191056
9 *1377:S *1378:A2 0
10 *1378:C1 *1378:A2 1.72724e-05
11 *1542:A *1378:A2 6.17578e-05
12 *296:26 *1378:A2 1.54493e-05
13 *354:25 *1378:A2 0
14 *355:18 *1378:A2 0.000518711
*RES
1 *1377:X *1378:A2 43.7846 
*END

*D_NET *378 0.00116134
*CONN
*I *1393:A2 I *D sky130_fd_sc_hd__a21oi_2
*I *1381:A1 I *D sky130_fd_sc_hd__a21o_2
*I *1394:A3 I *D sky130_fd_sc_hd__a31o_2
*I *1379:Y O *D sky130_fd_sc_hd__nand2_2
*CAP
1 *1393:A2 0
2 *1381:A1 6.52002e-05
3 *1394:A3 0
4 *1379:Y 0.000129247
5 *378:23 0.000177619
6 *378:10 0.000241666
7 *378:10 *1381:A2 0.000122721
8 *378:10 *1598:addr[2] 0
9 *378:23 *1381:A2 9.28112e-05
10 *1379:A *378:10 5.68722e-05
11 *1393:A1 *378:23 0.000170233
12 *1394:B1 *378:10 0
13 *1395:A *1381:A1 5.75275e-05
14 *1395:A *378:23 2.89016e-05
15 *362:103 *1381:A1 1.85443e-05
16 *374:44 *378:10 0
17 *374:44 *378:23 0
*RES
1 *1379:Y *378:10 16.2821 
2 *378:10 *1394:A3 13.8 
3 *378:10 *378:23 7.58929 
4 *378:23 *1381:A1 10.675 
5 *378:23 *1393:A2 9.3 
*END

*D_NET *379 0.00106236
*CONN
*I *1381:A2 I *D sky130_fd_sc_hd__a21o_2
*I *1380:X O *D sky130_fd_sc_hd__a311o_2
*CAP
1 *1381:A2 0.000316082
2 *1380:X 0.000316082
3 *1381:A2 *1385:A1 1.34631e-05
4 *1381:A2 *1598:addr[2] 0.000120215
5 *1379:A *1381:A2 7.2528e-05
6 *1393:A1 *1381:A2 8.45492e-06
7 *378:10 *1381:A2 0.000122721
8 *378:23 *1381:A2 9.28112e-05
*RES
1 *1380:X *1381:A2 34.1536 
*END

*D_NET *380 0.00549465
*CONN
*I *1382:A2 I *D sky130_fd_sc_hd__a21oi_2
*I *1381:X O *D sky130_fd_sc_hd__a21o_2
*CAP
1 *1382:A2 0.00152355
2 *1381:X 0.00152355
3 *1382:A2 *1396:A1 0.000207416
4 *1382:A2 *1403:B 0.000225307
5 *1382:A2 *1425:B 0.000108912
6 *1382:A2 *1598:addr[2] 0.000167069
7 *1382:A2 *535:39 0
8 *1382:A2 *564:53 0
9 *1378:A2 *1382:A2 0
10 *1391:A1 *1382:A2 1.01912e-05
11 *1542:A *1382:A2 0.000220044
12 *338:14 *1382:A2 0.000609544
13 *362:22 *1382:A2 0.000471407
14 *362:47 *1382:A2 0.000341506
15 *372:20 *1382:A2 8.61403e-05
*RES
1 *1381:X *1382:A2 42.3541 
*END

*D_NET *381 0.00207608
*CONN
*I *1384:A2 I *D sky130_fd_sc_hd__o21ai_2
*I *1383:Y O *D sky130_fd_sc_hd__nor2_2
*CAP
1 *1384:A2 0.000285802
2 *1383:Y 0.000285802
3 *1384:A2 *1383:A 5.23792e-05
4 *1384:A2 *1396:A1 1.28809e-05
5 *1384:A2 *1396:B1 0.000181251
6 *1384:A2 *1417:A2 1.32056e-05
7 *1384:A2 *1425:B 5.52238e-05
8 *1384:A2 *382:12 4.87953e-05
9 *1383:B *1384:A2 3.18676e-05
10 *1384:B1 *1384:A2 8.00517e-05
11 *1521:D *1384:A2 5.52238e-05
12 *84:24 *1384:A2 9.90431e-05
13 *355:18 *1384:A2 0.000867056
14 *365:14 *1384:A2 7.49387e-06
*RES
1 *1383:Y *1384:A2 28.6 
*END

*D_NET *382 0.00146241
*CONN
*I *1396:A1 I *D sky130_fd_sc_hd__o211a_2
*I *1387:B1 I *D sky130_fd_sc_hd__o311a_2
*I *1384:Y O *D sky130_fd_sc_hd__o21ai_2
*CAP
1 *1396:A1 0.000157525
2 *1387:B1 0.000143115
3 *1384:Y 7.25668e-05
4 *382:12 0.000373207
5 *1396:A1 *1396:A2 1.02504e-05
6 *1396:A1 *1396:B1 6.26774e-06
7 *1396:A1 *1425:B 0
8 *382:12 *1396:B1 3.45371e-05
9 *1382:A2 *1396:A1 0.000207416
10 *1384:A2 *1396:A1 1.28809e-05
11 *1384:A2 *382:12 4.87953e-05
12 *1384:B1 *382:12 7.24965e-05
13 *1396:C1 *1387:B1 5.19611e-05
14 *1396:C1 *1396:A1 3.29719e-05
15 *1396:C1 *382:12 1.80461e-05
16 *1542:A *1396:A1 0.000109339
17 *84:24 *1396:A1 9.25014e-06
18 *296:26 *1387:B1 4.46186e-06
19 *355:18 *1387:B1 6.47608e-05
20 *355:18 *382:12 1.10978e-05
21 *365:14 *382:12 2.14658e-05
*RES
1 *1384:Y *382:12 15.7554 
2 *382:12 *1387:B1 16.1304 
3 *382:12 *1396:A1 22.2722 
*END

*D_NET *383 0.00232854
*CONN
*I *1389:A1 I *D sky130_fd_sc_hd__mux2_1
*I *1387:A2 I *D sky130_fd_sc_hd__o311a_2
*I *1385:X O *D sky130_fd_sc_hd__o21ba_2
*CAP
1 *1389:A1 0
2 *1387:A2 0.000269984
3 *1385:X 0.00015464
4 *383:8 0.000424625
5 *1387:A2 *1387:A3 0.000684288
6 *1387:A2 *1390:B 0.00010326
7 *1387:A2 *572:73 6.23174e-05
8 *383:8 *1389:A0 0.00022459
9 *383:8 *1390:B 5.33005e-05
10 *383:8 *571:53 1.21258e-05
11 *1387:C1 *1387:A2 5.33005e-05
12 *1542:A *1387:A2 3.23542e-05
13 *362:77 *1387:A2 0.000172557
14 *362:79 *1387:A2 3.84643e-05
15 *371:22 *1387:A2 4.27338e-05
*RES
1 *1385:X *383:8 12.3179 
2 *383:8 *1387:A2 27.5857 
3 *383:8 *1389:A1 9.3 
*END

*D_NET *384 0.0029326
*CONN
*I *1387:A3 I *D sky130_fd_sc_hd__o311a_2
*I *1386:Y O *D sky130_fd_sc_hd__a21oi_2
*CAP
1 *1387:A3 0.00056615
2 *1386:Y 0.00056615
3 *1387:A3 *1341:B 6.07328e-05
4 *1387:A3 *1386:A2 9.80173e-05
5 *1387:A3 *1485:SET_B 0.000382962
6 *1387:A3 *572:73 7.43219e-05
7 *1108:A *1387:A3 6.43749e-05
8 *1108:B *1387:A3 3.10681e-05
9 *1370:B1 *1387:A3 0
10 *1387:A2 *1387:A3 0.000684288
11 *1396:C1 *1387:A3 5.1588e-05
12 *1542:A *1387:A3 4.22135e-06
13 *157:12 *1387:A3 8.67371e-05
14 *296:26 *1387:A3 0.00012401
15 *355:18 *1387:A3 0
16 *371:22 *1387:A3 0.000137983
*RES
1 *1386:Y *1387:A3 42.1893 
*END

*D_NET *385 0.00112876
*CONN
*I *1389:S I *D sky130_fd_sc_hd__mux2_1
*I *1388:X O *D sky130_fd_sc_hd__mux2_1
*CAP
1 *1389:S 0.000306451
2 *1388:X 0.000306451
3 *1389:S *1386:A1 2.28499e-05
4 *1389:S *1386:A2 2.15245e-05
5 *1389:S *513:29 0.000225609
6 *1389:S *572:73 0.000122935
7 *1370:B1 *1389:S 0.000122935
*RES
1 *1388:X *1389:S 32.6536 
*END

*D_NET *386 0.000823971
*CONN
*I *1390:B I *D sky130_fd_sc_hd__or2_2
*I *1389:X O *D sky130_fd_sc_hd__mux2_1
*CAP
1 *1390:B 0.000254601
2 *1389:X 0.000254601
3 *1390:B *1389:A0 2.14757e-05
4 *1390:B *449:34 3.69047e-06
5 *1390:B *571:53 2.97829e-05
6 *1390:B *572:73 0.00010326
7 *1387:A2 *1390:B 0.00010326
8 *383:8 *1390:B 5.33005e-05
*RES
1 *1389:X *1390:B 31.5286 
*END

*D_NET *387 0.00380821
*CONN
*I *1391:A2 I *D sky130_fd_sc_hd__a21oi_2
*I *1390:X O *D sky130_fd_sc_hd__or2_2
*CAP
1 *1391:A2 0
2 *1390:X 0.00129281
3 *387:12 0.00129281
4 *387:12 *1341:A 9.94037e-05
5 *387:12 *1341:B 0.000166077
6 *387:12 *1485:SET_B 5.33005e-05
7 *387:12 *494:14 0
8 *387:12 *535:39 0
9 *387:12 *572:73 0.000139907
10 *1296:A *387:12 0
11 *1345:A *387:12 0.000615111
12 *1346:A *387:12 0.000120342
13 *1346:B *387:12 1.58884e-05
14 *1346:C *387:12 0
15 *1391:A1 *387:12 4.6025e-06
16 *1507:D *387:12 0
17 *79:20 *387:12 7.96587e-06
*RES
1 *1390:X *387:12 40.8714 
2 *387:12 *1391:A2 9.3 
*END

*D_NET *388 0.000249894
*CONN
*I *1396:A2 I *D sky130_fd_sc_hd__o211a_2
*I *1392:Y O *D sky130_fd_sc_hd__nor2_2
*CAP
1 *1396:A2 8.08526e-05
2 *1392:Y 8.08526e-05
3 *1384:A1 *1396:A2 0
4 *1396:A1 *1396:A2 1.02504e-05
5 *1396:C1 *1396:A2 2.04825e-05
6 *84:24 *1396:A2 5.74562e-05
*RES
1 *1392:Y *1396:A2 29.2429 
*END

*D_NET *389 0.000299852
*CONN
*I *1395:B I *D sky130_fd_sc_hd__or3_2
*I *1393:Y O *D sky130_fd_sc_hd__a21oi_2
*CAP
1 *1395:B 9.22e-05
2 *1393:Y 9.22e-05
3 *1395:B *1395:C 9.80173e-05
4 *1395:A *1395:B 1.74352e-05
*RES
1 *1393:Y *1395:B 20.3857 
*END

*D_NET *390 0.00111147
*CONN
*I *1395:C I *D sky130_fd_sc_hd__or3_2
*I *1394:X O *D sky130_fd_sc_hd__a31o_2
*CAP
1 *1395:C 0.000242424
2 *1394:X 0.000242424
3 *1395:C *572:73 0.000178847
4 *1393:A1 *1395:C 0.000147708
5 *1395:A *1395:C 0.000108092
6 *1395:B *1395:C 9.80173e-05
7 *136:22 *1395:C 3.87299e-05
8 *374:44 *1395:C 5.52302e-05
*RES
1 *1394:X *1395:C 33.5107 
*END

*D_NET *391 0.00325683
*CONN
*I *1396:B1 I *D sky130_fd_sc_hd__o211a_2
*I *1395:X O *D sky130_fd_sc_hd__or3_2
*CAP
1 *1396:B1 0.000653561
2 *1395:X 0.000653561
3 *1396:B1 *1383:A 2.95229e-05
4 *1396:B1 *1425:B 2.89016e-05
5 *1396:B1 *1529:A 2.89114e-05
6 *1396:B1 *1598:addr[2] 0
7 *1396:B1 *417:98 0.000173797
8 *1354:A *1396:B1 0.000101085
9 *1383:B *1396:B1 0.000183713
10 *1384:A2 *1396:B1 0.000181251
11 *1384:B1 *1396:B1 0
12 *1395:A *1396:B1 0.000229456
13 *1396:A1 *1396:B1 6.26774e-06
14 *1521:D *1396:B1 2.89114e-05
15 *84:24 *1396:B1 5.62995e-05
16 *365:14 *1396:B1 0.000867056
17 *382:12 *1396:B1 3.45371e-05
*RES
1 *1395:X *1396:B1 44.3857 
*END

*D_NET *392 0.000460685
*CONN
*I *1398:B1 I *D sky130_fd_sc_hd__o21a_2
*I *1397:X O *D sky130_fd_sc_hd__a31o_2
*CAP
1 *1398:B1 0.000102663
2 *1397:X 0.000102663
3 *1398:B1 *1398:A2 2.26973e-05
4 *1398:B1 *526:93 0.000121596
5 *1397:A3 *1398:B1 1.36825e-05
6 *1500:D *1398:B1 7.14469e-05
7 *125:87 *1398:B1 2.59355e-05
*RES
1 *1397:X *1398:B1 29.7786 
*END

*D_NET *393 0.00102842
*CONN
*I *1400:B1 I *D sky130_fd_sc_hd__a21o_2
*I *1399:X O *D sky130_fd_sc_hd__o211a_2
*CAP
1 *1400:B1 0.000253938
2 *1399:X 0.000253938
3 *1400:B1 *1336:A 0
4 *1400:B1 *1400:A2 4.88637e-05
5 *1400:B1 *1545:A 0.00014285
6 *1400:B1 *590:115 2.77173e-05
7 *1400:B1 *600:27 9.60875e-05
8 *1337:C1 *1400:B1 2.57858e-05
9 *1400:A1 *1400:B1 2.89114e-05
10 *362:14 *1400:B1 0.000150333
*RES
1 *1399:X *1400:B1 33.3857 
*END

*D_NET *394 0.00128745
*CONN
*I *1417:A1 I *D sky130_fd_sc_hd__o21a_2
*I *1415:X O *D sky130_fd_sc_hd__and2_2
*CAP
1 *1417:A1 0.000356854
2 *1415:X 0.000356854
3 *1417:A1 *1412:A 0.000258653
4 *1417:A1 *477:14 0.00010096
5 *1417:A1 *482:10 0.000214128
6 *1417:A1 *483:10 0
*RES
1 *1415:X *1417:A1 35.35 
*END

*D_NET *395 0.00304589
*CONN
*I *1417:A2 I *D sky130_fd_sc_hd__o21a_2
*I *1416:Y O *D sky130_fd_sc_hd__nor2_2
*CAP
1 *1417:A2 0.000945019
2 *1416:Y 0.000945019
3 *1417:A2 *1416:B 0.000121842
4 *1417:A2 *1417:B1 9.90431e-05
5 *1417:A2 *482:10 0
6 *1417:A2 *483:10 0.000316091
7 *1417:A2 *512:28 2.32517e-05
8 *1384:A2 *1417:A2 1.32056e-05
9 *1384:B1 *1417:A2 5.84154e-05
10 *1514:D *1417:A2 0
11 *1590:A *1417:A2 0
12 *80:30 *1417:A2 0.000282299
13 *103:30 *1417:A2 0.000143366
14 *372:20 *1417:A2 9.83442e-05
*RES
1 *1416:Y *1417:A2 43.0464 
*END

*D_NET *396 0.000848738
*CONN
*I *1421:A1 I *D sky130_fd_sc_hd__o21a_2
*I *1419:X O *D sky130_fd_sc_hd__and2_2
*CAP
1 *1421:A1 0.000161989
2 *1419:X 0.000161989
3 *1421:A1 *1293:A 2.26582e-05
4 *1421:A1 *1421:B1 5.80706e-06
5 *1421:A1 *1503:CLK 9.02232e-05
6 *1421:A1 *417:125 4.94715e-05
7 *1421:A1 *417:131 0.000125731
8 *1421:A1 *477:81 0
9 *1421:A1 *488:18 0.000217533
10 *1520:D *1421:A1 0
11 *103:30 *1421:A1 1.33343e-05
*RES
1 *1419:X *1421:A1 32.5821 
*END

*D_NET *397 0.000856175
*CONN
*I *1421:A2 I *D sky130_fd_sc_hd__o21a_2
*I *1420:Y O *D sky130_fd_sc_hd__nor2_2
*CAP
1 *1421:A2 0.000187886
2 *1420:Y 0.000187886
3 *1421:A2 *1293:A 9.90431e-05
4 *1421:A2 *1420:B 7.83366e-05
5 *1421:A2 *1424:A2 0
6 *1421:A2 *1503:CLK 0.00010096
7 *1421:A2 *417:131 0.000145753
8 *1421:A2 *477:94 0
9 *1520:D *1421:A2 5.63101e-05
*RES
1 *1420:Y *1421:A2 32.6179 
*END

*D_NET *398 0.000395193
*CONN
*I *1424:A1 I *D sky130_fd_sc_hd__o21a_2
*I *1422:X O *D sky130_fd_sc_hd__and2_2
*CAP
1 *1424:A1 0.000114801
2 *1422:X 0.000114801
3 *1424:A1 *1422:A 2.27416e-05
4 *1424:A1 *486:27 0.00014285
*RES
1 *1422:X *1424:A1 21.2071 
*END

*D_NET *399 0.00081679
*CONN
*I *1424:A2 I *D sky130_fd_sc_hd__o21a_2
*I *1423:Y O *D sky130_fd_sc_hd__nor2_2
*CAP
1 *1424:A2 0.000399593
2 *1423:Y 0.000399593
3 *1424:A2 *1421:B1 0
4 *1424:A2 *1422:B 0
5 *1424:A2 *1423:B 0
6 *1424:A2 *564:111 1.76039e-05
7 *1421:A2 *1424:A2 0
8 *1520:D *1424:A2 0
*RES
1 *1423:Y *1424:A2 34.4036 
*END

*D_NET *400 0.000625443
*CONN
*I *1441:A1 I *D sky130_fd_sc_hd__a221o_2
*I *1426:Y O *D sky130_fd_sc_hd__nand2_2
*CAP
1 *1441:A1 0.000148712
2 *1426:Y 0.000148712
3 *1441:A1 *602:CLK 3.45059e-05
4 *1441:A1 *1426:A 3.03304e-05
5 *1441:A1 *1427:B 0.000154261
6 *1441:A1 *1441:A2 6.48464e-05
7 *1441:A1 *1441:B2 3.07195e-05
8 *1441:A1 *473:28 7.69776e-06
9 *1441:A1 *589:146 5.65801e-06
*RES
1 *1426:Y *1441:A1 31.1 
*END

*D_NET *401 0.000438108
*CONN
*I *1441:A2 I *D sky130_fd_sc_hd__a221o_2
*I *1427:X O *D sky130_fd_sc_hd__or2_2
*CAP
1 *1441:A2 9.05161e-05
2 *1427:X 9.05161e-05
3 *1441:A2 *1441:C1 3.33174e-05
4 *1441:A2 *415:22 1.89695e-05
5 *1441:A2 *589:146 0.000139943
6 *1441:A1 *1441:A2 6.48464e-05
*RES
1 *1427:X *1441:A2 29.8768 
*END

*D_NET *402 0.000364833
*CONN
*I *1441:B1 I *D sky130_fd_sc_hd__a221o_2
*I *1428:Y O *D sky130_fd_sc_hd__nand2_2
*CAP
1 *1441:B1 4.24103e-05
2 *1428:Y 4.24103e-05
3 *1441:B1 *1441:B2 1.38106e-05
4 *1441:B1 *1441:C1 6.84919e-05
5 *1441:B1 *415:22 0.000183726
6 *125:87 *1441:B1 1.39841e-05
*RES
1 *1428:Y *1441:B1 20.3679 
*END

*D_NET *403 0.0023857
*CONN
*I *1441:B2 I *D sky130_fd_sc_hd__a221o_2
*I *1429:X O *D sky130_fd_sc_hd__or2_2
*CAP
1 *1441:B2 0.000469454
2 *1429:X 0.000469454
3 *1441:B2 *602:CLK 7.53309e-05
4 *1441:B2 *1426:A 5.52238e-05
5 *1441:B2 *1427:B 2.24195e-05
6 *1441:B2 *1429:A 0.00049724
7 *1441:B2 *1441:C1 1.28809e-05
8 *1441:B2 *473:28 0
9 *1441:B2 *474:14 0.000529582
10 *1441:B2 *593:104 9.41642e-05
11 *1441:A1 *1441:B2 3.07195e-05
12 *1441:B1 *1441:B2 1.38106e-05
13 *134:12 *1441:B2 0.000115426
*RES
1 *1429:X *1441:B2 39.6402 
*END

*D_NET *404 0.000334121
*CONN
*I *1440:A1 I *D sky130_fd_sc_hd__a22o_2
*I *1430:Y O *D sky130_fd_sc_hd__nand2_2
*CAP
1 *1440:A1 5.64562e-05
2 *1430:Y 5.64562e-05
3 *1440:A1 *1430:A 0.000121242
4 *1440:A1 *457:42 0
5 *1360:C *1440:A1 9.99668e-05
*RES
1 *1430:Y *1440:A1 29.2429 
*END

*D_NET *405 0.000405078
*CONN
*I *1440:A2 I *D sky130_fd_sc_hd__a22o_2
*I *1431:X O *D sky130_fd_sc_hd__or2_2
*CAP
1 *1440:A2 0.000131957
2 *1431:X 0.000131957
3 *1440:A2 *1430:A 7.4102e-05
4 *1440:A2 *1441:C1 1.46576e-05
5 *1440:A2 *457:42 4.28759e-05
6 *1360:C *1440:A2 6.05161e-06
7 *125:87 *1440:A2 3.47641e-06
*RES
1 *1431:X *1440:A2 29.9973 
*END

*D_NET *406 0.000467018
*CONN
*I *1439:C1 I *D sky130_fd_sc_hd__a221o_2
*I *1432:X O *D sky130_fd_sc_hd__a2bb2o_2
*CAP
1 *1439:C1 0.000129589
2 *1432:X 0.000129589
3 *1439:C1 *1432:A2_N 1.73844e-05
4 *1334:A1 *1439:C1 3.84385e-05
5 *1334:B1 *1439:C1 1.02504e-05
6 *1432:A1_N *1439:C1 1.3216e-05
7 *1437:B1 *1439:C1 2.8266e-06
8 *133:20 *1439:C1 0.000125724
*RES
1 *1432:X *1439:C1 30.1893 
*END

*D_NET *407 0.000713989
*CONN
*I *1438:C1 I *D sky130_fd_sc_hd__a221o_2
*I *1433:X O *D sky130_fd_sc_hd__a2bb2o_2
*CAP
1 *1438:C1 0.000183035
2 *1433:X 0.000183035
3 *1438:C1 *1433:A1_N 0.000105612
4 *1438:C1 *476:10 3.34687e-05
5 *1433:B1 *1438:C1 3.10802e-05
6 *1437:B1 *1438:C1 5.48248e-05
7 *125:16 *1438:C1 0.000122933
*RES
1 *1433:X *1438:C1 31.0107 
*END

*D_NET *408 0.000952285
*CONN
*I *1440:B1 I *D sky130_fd_sc_hd__a22o_2
*I *1434:Y O *D sky130_fd_sc_hd__nand2_2
*CAP
1 *1440:B1 0.000147116
2 *1434:Y 0.000147116
3 *1440:B1 *1430:A 0.000186437
4 *1440:B1 *1431:B 5.52302e-05
5 *1440:B1 *1440:B2 0.000259148
6 *1440:B1 *1441:C1 5.33005e-05
7 *1440:B1 *586:49 1.08359e-05
8 *1440:B1 *586:74 1.98839e-05
9 *1276:B *1440:B1 4.43157e-05
10 *1360:C *1440:B1 2.89016e-05
*RES
1 *1434:Y *1440:B1 32.0464 
*END

*D_NET *409 0.00109166
*CONN
*I *1440:B2 I *D sky130_fd_sc_hd__a22o_2
*I *1435:X O *D sky130_fd_sc_hd__or2_2
*CAP
1 *1440:B2 0.000229894
2 *1435:X 0.000229894
3 *1440:B2 *1430:B 0.000141032
4 *1440:B2 *1434:A 2.44318e-05
5 *1440:B2 *1435:A 9.90431e-05
6 *1440:B2 *586:49 3.06511e-05
7 *1440:B2 *586:74 5.33005e-05
8 *1276:B *1440:B2 2.42662e-05
9 *1440:B1 *1440:B2 0.000259148
*RES
1 *1435:X *1440:B2 32.85 
*END

*D_NET *410 0.000913723
*CONN
*I *1442:A I *D sky130_fd_sc_hd__or4_2
*I *1436:X O *D sky130_fd_sc_hd__a22o_2
*CAP
1 *1442:A 0.000278412
2 *1436:X 0.000278412
3 *1442:A *1436:A1 2.01483e-05
4 *1442:A *1436:B2 2.89016e-05
5 *1442:A *1442:B 0.00012676
6 *1442:A *415:22 5.33005e-05
7 *1432:B1 *1442:A 2.89114e-05
8 *1436:A2 *1442:A 3.95241e-05
9 *1436:B1 *1442:A 5.33005e-05
10 *125:87 *1442:A 6.05161e-06
*RES
1 *1436:X *1442:A 24.1 
*END

*D_NET *411 0.000715601
*CONN
*I *1442:B I *D sky130_fd_sc_hd__or4_2
*I *1437:X O *D sky130_fd_sc_hd__a2bb2o_2
*CAP
1 *1442:B 0.00021593
2 *1437:X 0.00021593
3 *1442:B *1436:B2 7.29712e-05
4 *1432:B1 *1442:B 5.33005e-05
5 *1442:A *1442:B 0.00012676
6 *174:20 *1442:B 3.07101e-05
*RES
1 *1437:X *1442:B 30.8143 
*END

*D_NET *412 0.000859132
*CONN
*I *1443:A I *D sky130_fd_sc_hd__nor2_2
*I *1438:X O *D sky130_fd_sc_hd__a221o_2
*CAP
1 *1443:A 0.000251856
2 *1438:X 0.000251856
3 *1443:A *1439:A2 4.57445e-05
4 *1443:A *1443:B 4.25809e-05
5 *1437:B1 *1443:A 0.000267094
*RES
1 *1438:X *1443:A 31.8321 
*END

*D_NET *413 0.000745904
*CONN
*I *1442:C I *D sky130_fd_sc_hd__or4_2
*I *1439:X O *D sky130_fd_sc_hd__a221o_2
*CAP
1 *1442:C 0.000135562
2 *1439:X 0.000135562
3 *1442:C *1328:B1 0.000110997
4 *1442:C *415:22 5.49544e-05
5 *1327:B *1442:C 7.64863e-05
6 *1432:B1 *1442:C 2.84109e-05
7 *130:80 *1442:C 5.33005e-05
8 *131:14 *1442:C 0.000150632
*RES
1 *1439:X *1442:C 31.5286 
*END

*D_NET *414 0.00202575
*CONN
*I *1441:C1 I *D sky130_fd_sc_hd__a221o_2
*I *1440:X O *D sky130_fd_sc_hd__a22o_2
*CAP
1 *1441:C1 0.000458586
2 *1440:X 0.000458586
3 *1441:C1 *602:CLK 0.000360823
4 *1441:C1 *1428:B 0
5 *1441:C1 *415:22 4.77528e-05
6 *1358:B *1441:C1 2.89016e-05
7 *1360:C *1441:C1 0.000132012
8 *1440:A2 *1441:C1 1.46576e-05
9 *1440:B1 *1441:C1 5.33005e-05
10 *1441:A2 *1441:C1 3.33174e-05
11 *1441:B1 *1441:C1 6.84919e-05
12 *1441:B2 *1441:C1 1.28809e-05
13 *125:87 *1441:C1 0.000356441
*RES
1 *1440:X *1441:C1 30.6179 
*END

*D_NET *415 0.00437564
*CONN
*I *1442:D I *D sky130_fd_sc_hd__or4_2
*I *1441:X O *D sky130_fd_sc_hd__a221o_2
*CAP
1 *1442:D 0
2 *1441:X 0.00158243
3 *415:22 0.00158243
4 *415:22 *1328:B1 4.53834e-05
5 *415:22 *1428:B 3.67257e-05
6 *415:22 *1436:A1 0.000186669
7 *415:22 *1480:CLK 2.84026e-05
8 *415:22 *575:30 0.000226449
9 *1359:B1 *415:22 0
10 *1432:B1 *415:22 2.18902e-05
11 *1441:A2 *415:22 1.89695e-05
12 *1441:B1 *415:22 0.000183726
13 *1441:C1 *415:22 4.77528e-05
14 *1442:A *415:22 5.33005e-05
15 *1442:C *415:22 5.49544e-05
16 *1480:D *415:22 9.82585e-06
17 *125:87 *415:22 0.000193298
18 *130:93 *415:22 9.60337e-06
19 *174:20 *415:22 2.05484e-05
20 *335:26 *415:22 7.32905e-05
*RES
1 *1441:X *415:22 44.5835 
2 *415:22 *1442:D 9.3 
*END

*D_NET *416 0.000704519
*CONN
*I *1443:B I *D sky130_fd_sc_hd__nor2_2
*I *1442:X O *D sky130_fd_sc_hd__or4_2
*CAP
1 *1443:B 0.000196374
2 *1442:X 0.000196374
3 *1443:B *1128:A 5.64916e-05
4 *1443:B *1439:A2 0
5 *1443:B *472:51 5.40449e-05
6 *1432:B1 *1443:B 4.00349e-05
7 *1443:A *1443:B 4.25809e-05
8 *174:20 *1443:B 0.000118618
*RES
1 *1442:X *1443:B 31.975 
*END

*D_NET *417 0.0245922
*CONN
*I *1510:CLK I *D sky130_fd_sc_hd__dfxtp_2
*I *1512:CLK I *D sky130_fd_sc_hd__dfxtp_2
*I *1506:CLK I *D sky130_fd_sc_hd__dfxtp_2
*I *1514:CLK I *D sky130_fd_sc_hd__dfxtp_2
*I *1517:CLK I *D sky130_fd_sc_hd__dfxtp_2
*I *1519:CLK I *D sky130_fd_sc_hd__dfxtp_2
*I *1515:CLK I *D sky130_fd_sc_hd__dfxtp_2
*I *1518:CLK I *D sky130_fd_sc_hd__dfxtp_2
*I *1503:CLK I *D sky130_fd_sc_hd__dfxtp_2
*I *1520:CLK I *D sky130_fd_sc_hd__dfxtp_2
*I *1513:CLK I *D sky130_fd_sc_hd__dfxtp_2
*I *1502:CLK I *D sky130_fd_sc_hd__dfxtp_2
*I *1504:CLK I *D sky130_fd_sc_hd__dfxtp_2
*I *1505:CLK I *D sky130_fd_sc_hd__dfxtp_2
*I *1521:CLK I *D sky130_fd_sc_hd__dfxtp_2
*I *1516:CLK I *D sky130_fd_sc_hd__dfxtp_2
*I *1507:CLK I *D sky130_fd_sc_hd__dfxtp_2
*I *1511:CLK I *D sky130_fd_sc_hd__dfxtp_2
*I *1509:CLK I *D sky130_fd_sc_hd__dfxtp_2
*I *1508:CLK I *D sky130_fd_sc_hd__dfxtp_2
*I *1444:GCLK O *D sky130_fd_sc_hd__dlclkp_2
*CAP
1 *1510:CLK 0.00016806
2 *1512:CLK 0.000261144
3 *1506:CLK 2.24802e-05
4 *1514:CLK 0.000223693
5 *1517:CLK 1.61172e-05
6 *1519:CLK 0.000201932
7 *1515:CLK 9.77819e-05
8 *1518:CLK 0.00014997
9 *1503:CLK 8.1706e-05
10 *1520:CLK 2.8465e-05
11 *1513:CLK 0.0005323
12 *1502:CLK 0
13 *1504:CLK 0.000283308
14 *1505:CLK 0.000115862
15 *1521:CLK 2.37855e-05
16 *1516:CLK 2.15003e-05
17 *1507:CLK 2.24275e-05
18 *1511:CLK 0
19 *1509:CLK 0
20 *1508:CLK 0.000125496
21 *1444:GCLK 0.000342874
22 *417:175 0.000433951
23 *417:173 0.000150355
24 *417:171 0.000532534
25 *417:158 0.000513807
26 *417:131 0.000660545
27 *417:125 0.00030139
28 *417:98 0.000639942
29 *417:94 0.000332194
30 *417:92 0.000370595
31 *417:81 0.000584359
32 *417:72 0.000613604
33 *417:68 0.000755646
34 *417:64 0.0011199
35 *417:53 0.000886481
36 *417:47 0.000624265
37 *417:36 0.000512474
38 *417:10 0.000332375
39 *417:6 0.000807535
40 *1503:CLK *1293:A 0.000114665
41 *1503:CLK *488:8 0.000144773
42 *1503:CLK *488:18 1.02936e-05
43 *1504:CLK *490:14 4.01768e-05
44 *1505:CLK *564:36 3.67257e-05
45 *1508:CLK *525:24 0.000140214
46 *1508:CLK *526:32 0
47 *1510:CLK *1408:A 5.52302e-05
48 *1510:CLK *1408:B 8.50795e-06
49 *1510:CLK *1536:A 3.10885e-05
50 *1510:CLK *1586:A 7.6644e-05
51 *1510:CLK *446:27 0.000137774
52 *1510:CLK *527:42 0
53 *1512:CLK *1294:D 8.11009e-05
54 *1513:CLK *1350:B 3.98547e-05
55 *1513:CLK *1420:B 9.90367e-05
56 *1513:CLK *479:8 7.45054e-06
57 *1513:CLK *485:10 1.02821e-05
58 *1513:CLK *485:25 1.3701e-05
59 *1513:CLK *512:28 0.000136951
60 *1514:CLK *1413:B 0
61 *1514:CLK *426:12 2.2816e-05
62 *1514:CLK *426:16 9.83442e-05
63 *1515:CLK *534:22 0.000119808
64 *1517:CLK *1577:A 2.23592e-05
65 *1517:CLK *534:22 1.83136e-05
66 *1518:CLK *1578:A 9.74742e-05
67 *1519:CLK *1144:A 7.2754e-05
68 *1519:CLK *512:28 0.000375798
69 *1520:CLK *485:10 3.23206e-05
70 *417:6 *1294:A 0.000107996
71 *417:6 *1407:A 9.60875e-05
72 *417:36 *1294:A 0.000230482
73 *417:36 *1405:A 5.71472e-05
74 *417:36 *496:12 1.21289e-05
75 *417:47 *1405:A 1.74352e-05
76 *417:47 *496:12 5.71472e-05
77 *417:53 *1405:B 8.70933e-06
78 *417:53 *1584:A 0
79 *417:53 *494:14 3.05446e-05
80 *417:53 *553:29 3.36355e-06
81 *417:64 *492:8 2.95641e-05
82 *417:64 *494:14 2.4452e-05
83 *417:68 *1352:A 1.87097e-05
84 *417:68 *1404:B 3.23218e-05
85 *417:68 *1412:B 7.6963e-05
86 *417:68 *1414:A 3.17148e-05
87 *417:68 *1416:A 6.42242e-05
88 *417:68 *477:35 2.16719e-05
89 *417:72 *1414:A 0.000141734
90 *417:72 *1414:B 0.000135028
91 *417:72 *1418:A 2.36643e-05
92 *417:81 *1350:C 0.000144773
93 *417:81 *1549:A 1.40415e-05
94 *417:92 *1350:A 0.000136951
95 *417:92 *1350:C 0.000229456
96 *417:92 *564:90 0.000178847
97 *417:94 *1293:A 0.000221163
98 *417:94 *488:18 8.95863e-05
99 *417:94 *564:45 0
100 *417:98 *1364:A 2.09897e-05
101 *417:98 *1392:A 0.00010302
102 *417:98 *1598:addr[2] 0
103 *417:98 *488:18 1.59782e-05
104 *417:98 *564:36 0
105 *417:98 *564:45 0
106 *417:125 *1293:A 0.000234094
107 *417:125 *1421:B1 0
108 *417:125 *488:18 3.0285e-05
109 *417:131 *477:81 0
110 *417:131 *477:94 0
111 *417:158 *1414:A 0.000114045
112 *417:171 *1352:A 9.87935e-06
113 *417:171 *1413:B 0
114 *417:171 *1414:A 0.000161855
115 *417:171 *1418:A 0
116 *417:171 *1573:A 0
117 *417:175 *1351:C1 2.44318e-05
118 *417:175 *1577:A 7.77652e-05
119 *417:175 *534:22 0.000168966
120 *1145:B *1508:CLK 9.25014e-06
121 *1145:B *417:10 0.000309597
122 *1295:B *1507:CLK 3.08382e-06
123 *1296:A *417:53 9.60939e-05
124 *1296:A *417:64 0.000349111
125 *1338:B *1512:CLK 0.000367803
126 *1338:B *417:53 0.000210232
127 *1346:A *417:64 0.000142856
128 *1346:B *1506:CLK 0.000143651
129 *1346:B *417:64 0.000279558
130 *1347:B *1519:CLK 0
131 *1351:A1 *417:64 9.90367e-05
132 *1351:B1 *1518:CLK 0
133 *1351:B1 *417:72 5.49544e-05
134 *1351:B1 *417:158 0.000100831
135 *1351:B1 *417:171 3.34295e-05
136 *1352:C *417:68 0.000142718
137 *1378:A2 *417:68 0
138 *1378:B1 *417:68 0
139 *1378:C1 *417:68 5.61242e-05
140 *1396:B1 *417:98 0.000173797
141 *1421:A1 *1503:CLK 9.02232e-05
142 *1421:A1 *417:125 4.94715e-05
143 *1421:A1 *417:131 0.000125731
144 *1421:A2 *1503:CLK 0.00010096
145 *1421:A2 *417:131 0.000145753
146 *1499:D *1512:CLK 7.43578e-06
147 *1505:D *1505:CLK 0.000128093
148 *1506:D *1506:CLK 9.54168e-05
149 *1506:D *417:64 6.02722e-05
150 *1507:D *417:64 0.000269739
151 *1508:D *1508:CLK 5.71472e-05
152 *1509:D *417:10 9.97669e-05
153 *1513:D *1513:CLK 0.000568338
154 *1514:D *1514:CLK 0
155 *1514:D *417:68 0
156 *1514:D *417:171 0
157 *1515:D *1514:CLK 0
158 *1515:D *1515:CLK 0.000190948
159 *1515:D *417:175 0.000294906
160 *1516:D *1516:CLK 1.00733e-05
161 *1516:D *417:72 2.36643e-05
162 *1516:D *417:81 0.000105917
163 *1518:D *1518:CLK 1.64343e-05
164 *1520:D *417:131 0
165 *1521:D *417:92 1.64343e-05
166 *1534:A *1512:CLK 4.46186e-06
167 *1542:A *417:10 1.03106e-05
168 *1591:A *1519:CLK 0
169 *79:20 *1510:CLK 2.59355e-05
170 *84:24 *1512:CLK 1.39726e-05
171 *84:24 *417:72 1.16111e-05
172 *84:24 *417:81 0.000114393
173 *103:30 *1519:CLK 0.000234479
174 *103:30 *417:125 3.14193e-05
175 *182:20 *417:10 0
176 *217:8 *1508:CLK 2.89114e-05
177 *227:20 *1512:CLK 0
178 *227:20 *417:36 0.000447834
179 *227:20 *417:53 0
180 *294:32 *1508:CLK 1.88048e-05
181 *294:32 *417:10 2.54386e-05
182 *295:10 *417:36 0.000135028
183 *296:14 *417:53 8.68127e-05
184 *296:26 *417:68 6.35819e-05
185 *362:47 *417:68 0.000177787
186 *372:20 *417:68 0
*RES
1 *1444:GCLK *417:6 11.4786 
2 *417:6 *417:10 8.875 
3 *417:10 *1508:CLK 16.5857 
4 *417:10 *1509:CLK 13.8 
5 *417:6 *417:36 8.39286 
6 *417:36 *1511:CLK 9.3 
7 *417:36 *417:47 5.98214 
8 *417:47 *417:53 10.125 
9 *417:53 *1507:CLK 9.72857 
10 *417:53 *417:64 13.2857 
11 *417:64 *417:68 14.6429 
12 *417:68 *417:72 8.32143 
13 *417:72 *1516:CLK 9.72857 
14 *417:72 *417:81 7.51786 
15 *417:81 *1521:CLK 9.72857 
16 *417:81 *417:92 8.73214 
17 *417:92 *417:94 3.16071 
18 *417:94 *417:98 9.48214 
19 *417:98 *1505:CLK 11.8893 
20 *417:98 *1504:CLK 13.9429 
21 *417:94 *1502:CLK 13.8 
22 *417:92 *417:125 8.10714 
23 *417:125 *417:131 11.25 
24 *417:131 *1513:CLK 19.6214 
25 *417:131 *1520:CLK 9.83571 
26 *417:125 *1503:CLK 12.7107 
27 *417:68 *417:158 1.64286 
28 *417:158 *1518:CLK 16.4071 
29 *417:158 *417:171 5.28571 
30 *417:171 *417:173 4.5 
31 *417:173 *417:175 4.64286 
32 *417:175 *1515:CLK 12.3 
33 *417:175 *1519:CLK 24.0857 
34 *417:173 *1517:CLK 9.83571 
35 *417:171 *1514:CLK 17.7107 
36 *417:64 *1506:CLK 10.6571 
37 *417:47 *1512:CLK 19.3179 
38 *1444:GCLK *1510:CLK 31.475 
*END

*D_NET *418 0.0146097
*CONN
*I *1492:CLK I *D sky130_fd_sc_hd__dfrtp_2
*I *1490:CLK I *D sky130_fd_sc_hd__dfstp_2
*I *1488:CLK I *D sky130_fd_sc_hd__dfstp_2
*I *1486:CLK I *D sky130_fd_sc_hd__dfrtp_2
*I *1485:CLK I *D sky130_fd_sc_hd__dfstp_2
*I *1484:CLK I *D sky130_fd_sc_hd__dfstp_2
*I *1483:CLK I *D sky130_fd_sc_hd__dfstp_2
*I *1487:CLK I *D sky130_fd_sc_hd__dfrtp_2
*I *1491:CLK I *D sky130_fd_sc_hd__dfstp_2
*I *1489:CLK I *D sky130_fd_sc_hd__dfrtp_2
*I *1493:CLK I *D sky130_fd_sc_hd__dfrtp_2
*I *1445:GCLK O *D sky130_fd_sc_hd__dlclkp_2
*CAP
1 *1492:CLK 9.40453e-05
2 *1490:CLK 3.1348e-05
3 *1488:CLK 0
4 *1486:CLK 6.51806e-05
5 *1485:CLK 0.000202536
6 *1484:CLK 3.82418e-05
7 *1483:CLK 0.000171639
8 *1487:CLK 0.000182615
9 *1491:CLK 0.000184061
10 *1489:CLK 0
11 *1493:CLK 2.00114e-05
12 *1445:GCLK 9.16947e-05
13 *418:119 0.000217527
14 *418:88 0.0012745
15 *418:79 0.00142652
16 *418:57 0.000565386
17 *418:55 0.000832034
18 *418:51 0.000939952
19 *418:34 0.00116651
20 *418:27 0.000446525
21 *418:23 0.000489791
22 *418:8 0.000344738
23 *1484:CLK *1487:RESET_B 0
24 *1485:CLK *1175:C 3.69047e-06
25 *1485:CLK *448:10 5.20751e-05
26 *1485:CLK *448:12 3.2687e-05
27 *1490:CLK *1201:A 4.87854e-05
28 *1491:CLK *535:67 2.64852e-05
29 *1492:CLK *1444:CLK 6.03481e-05
30 *418:23 *1444:CLK 4.00301e-05
31 *418:27 *1535:A 9.41642e-05
32 *418:27 *527:10 1.39841e-05
33 *418:27 *533:85 0.000394969
34 *418:34 *1178:A 0.000137427
35 *418:51 *1178:A 9.0145e-05
36 *418:51 *1489:RESET_B 4.73514e-05
37 *418:51 *526:32 0.000755697
38 *418:55 *526:32 0.000146061
39 *418:55 *533:54 0
40 *418:79 *1344:A 3.67257e-05
41 *418:79 *1487:RESET_B 1.03968e-05
42 *418:79 *533:32 9.66073e-06
43 *418:88 *1175:C 2.14973e-05
44 *418:88 *447:8 9.41642e-05
45 *418:88 *533:30 2.42915e-05
46 *418:88 *533:32 5.90702e-05
47 *418:119 *1444:CLK 1.37292e-05
48 *1101:A2 *418:88 5.72869e-05
49 *1101:B1 *1485:CLK 9.66894e-06
50 *1101:B1 *418:88 9.41642e-05
51 *1186:B *1485:CLK 5.33005e-05
52 *1187:A2 *1486:CLK 7.6644e-05
53 *1187:B1 *1486:CLK 2.11419e-05
54 *1189:A *1486:CLK 4.90426e-05
55 *1189:B *1486:CLK 2.22641e-05
56 *1190:B *418:55 0
57 *1192:A1 *418:51 5.29278e-05
58 *1197:A2 *1491:CLK 6.09476e-05
59 *1198:A2 *1491:CLK 0.0001448
60 *1198:B1 *418:51 8.7935e-05
61 *1315:A2_N *1483:CLK 0
62 *1487:D *1483:CLK 1.52978e-05
63 *1487:D *1487:CLK 5.52238e-05
64 *1487:D *418:55 0
65 *1487:D *418:57 8.46829e-05
66 *1488:D *418:51 0
67 *1489:D *418:34 7.77652e-05
68 *1490:D *1492:CLK 4.46186e-06
69 *1490:D *418:119 6.19181e-05
70 *1491:D *418:51 9.69485e-05
71 *1498:D *418:8 3.88525e-05
72 *1498:D *418:23 3.40072e-05
73 *1499:D *1492:CLK 0.000179717
74 *1499:D *418:23 0.000175529
75 *1499:D *418:119 0.000162832
76 *80:56 *1490:CLK 7.61504e-05
77 *182:10 *1491:CLK 0.000351603
78 *182:10 *418:51 2.17086e-05
79 *182:20 *418:51 3.35685e-06
80 *186:33 *418:51 8.67618e-05
81 *194:68 *418:23 2.11419e-05
82 *194:68 *418:27 0.00023367
83 *194:68 *418:34 6.09925e-05
84 *217:27 *418:51 0.0010387
*RES
1 *1445:GCLK *418:8 11.0857 
2 *418:8 *1493:CLK 9.72857 
3 *418:8 *418:23 9.05357 
4 *418:23 *418:27 9.96429 
5 *418:27 *1489:CLK 9.3 
6 *418:27 *418:34 5.875 
7 *418:34 *1491:CLK 22.9786 
8 *418:34 *418:51 23.6964 
9 *418:51 *418:55 8.57143 
10 *418:55 *418:57 2.58929 
11 *418:57 *1487:CLK 11.8 
12 *418:57 *1483:CLK 21.4607 
13 *418:55 *418:79 4.64286 
14 *418:79 *1484:CLK 10.0321 
15 *418:79 *418:88 12.0357 
16 *418:88 *1485:CLK 12.7464 
17 *418:88 *1486:CLK 19.9429 
18 *418:51 *1488:CLK 13.8 
19 *418:23 *418:119 2.25 
20 *418:119 *1490:CLK 14.7464 
21 *418:119 *1492:CLK 16.3536 
*END

*D_NET *419 0.0248003
*CONN
*I *1481:CLK I *D sky130_fd_sc_hd__dfxtp_2
*I *1478:CLK I *D sky130_fd_sc_hd__dfxtp_2
*I *1479:CLK I *D sky130_fd_sc_hd__dfxtp_2
*I *1477:CLK I *D sky130_fd_sc_hd__dfxtp_2
*I *1474:CLK I *D sky130_fd_sc_hd__dfxtp_2
*I *1476:CLK I *D sky130_fd_sc_hd__dfxtp_2
*I *1482:CLK I *D sky130_fd_sc_hd__dfxtp_2
*I *1475:CLK I *D sky130_fd_sc_hd__dfxtp_2
*I *1466:CLK I *D sky130_fd_sc_hd__dfrtp_2
*I *1465:CLK I *D sky130_fd_sc_hd__dfrtp_2
*I *1467:CLK I *D sky130_fd_sc_hd__dfrtp_2
*I *1470:CLK I *D sky130_fd_sc_hd__dfrtp_2
*I *1471:CLK I *D sky130_fd_sc_hd__dfrtp_2
*I *1472:CLK I *D sky130_fd_sc_hd__dfrtp_2
*I *1469:CLK I *D sky130_fd_sc_hd__dfrtp_2
*I *1468:CLK I *D sky130_fd_sc_hd__dfrtp_2
*I *1473:CLK I *D sky130_fd_sc_hd__dfxtp_2
*I *1480:CLK I *D sky130_fd_sc_hd__dfxtp_2
*I *1446:GCLK O *D sky130_fd_sc_hd__dlclkp_2
*CAP
1 *1481:CLK 0.000160492
2 *1478:CLK 0
3 *1479:CLK 0.000520245
4 *1477:CLK 2.23854e-05
5 *1474:CLK 0
6 *1476:CLK 2.3932e-05
7 *1482:CLK 0
8 *1475:CLK 7.31194e-05
9 *1466:CLK 0
10 *1465:CLK 0.000241534
11 *1467:CLK 0
12 *1470:CLK 0.000152268
13 *1471:CLK 9.3752e-05
14 *1472:CLK 0.00033742
15 *1469:CLK 4.2148e-05
16 *1468:CLK 0.000140713
17 *1473:CLK 0
18 *1480:CLK 1.89328e-05
19 *1446:GCLK 0.000180614
20 *419:217 0.00185825
21 *419:200 0.00186099
22 *419:187 0.000762153
23 *419:176 0.000401798
24 *419:174 0.000313159
25 *419:102 0.00053861
26 *419:100 0.000374333
27 *419:89 0.000365301
28 *419:72 0.000921402
29 *419:64 0.000704462
30 *419:60 0.000451662
31 *419:56 0.000403294
32 *419:50 0.000507839
33 *419:41 0.00021785
34 *419:35 0.00113691
35 *419:25 0.00157338
36 *419:10 0.000708255
37 *1465:CLK *1062:A 0
38 *1468:CLK *1209:B 9.98191e-05
39 *1470:CLK *1090:B 0.000210168
40 *1471:CLK *1553:A 7.57312e-05
41 *1472:CLK *1096:A 0
42 *1472:CLK *437:45 0.000129989
43 *1475:CLK *1522:A 0.000144015
44 *1476:CLK *590:83 2.59355e-05
45 *1479:CLK *1279:B 5.30637e-06
46 *1479:CLK *472:25 0
47 *1479:CLK *473:12 5.70961e-05
48 *1479:CLK *590:99 0
49 *1481:CLK *472:51 0.000143756
50 *419:25 *1429:B 6.27272e-06
51 *419:25 *1436:A1 0
52 *419:25 *475:14 1.90936e-05
53 *419:35 *1283:B 0.000185118
54 *419:35 *1288:A 5.61514e-05
55 *419:35 *472:51 1.34548e-05
56 *419:35 *475:14 6.37711e-05
57 *419:41 *1522:A 0.000366675
58 *419:50 *1522:A 0.00023401
59 *419:56 *1082:B 0.000189855
60 *419:60 *1082:B 0.000150235
61 *419:60 *545:18 0.000317262
62 *419:64 *1469:RESET_B 0
63 *419:64 *462:47 5.01117e-05
64 *419:64 *545:18 0
65 *419:72 *1209:B 9.31209e-05
66 *419:72 *1468:RESET_B 1.39711e-05
67 *419:72 *462:10 0.00010096
68 *419:72 *530:47 6.79057e-05
69 *419:89 *1091:B1 0.000211854
70 *419:100 *1091:B1 0.000145444
71 *419:100 *437:45 2.30245e-05
72 *419:102 *437:45 8.6332e-05
73 *419:176 *1436:A1 0
74 *419:176 *475:14 9.58189e-06
75 *419:187 *531:10 0
76 *419:200 *1245:A 5.49489e-05
77 *419:200 *531:10 0
78 *419:217 *1496:CLK 0.000405304
79 *419:217 *1524:A 6.81704e-05
80 *419:217 *457:42 0
81 *419:217 *471:10 1.05947e-05
82 *419:217 *472:25 0
83 uio_oe[0] *419:187 0
84 uio_oe[0] *419:200 0
85 uio_oe[6] *419:35 2.09044e-05
86 uio_oe[6] *419:41 3.15814e-05
87 uio_oe[6] *419:50 2.5621e-05
88 uio_oe[7] *419:35 3.32971e-05
89 uio_oe[7] *419:41 0.000325166
90 uio_oe[7] *419:50 0.000139379
91 uio_out[0] *419:217 1.55885e-05
92 uio_out[1] *419:217 3.97657e-05
93 uio_out[7] *419:200 0.000228791
94 uo_out[7] *419:217 0.000109996
95 *1085:B *419:64 0
96 *1092:B *1468:CLK 2.84019e-05
97 *1246:A1 *419:187 5.64118e-05
98 *1246:A1 *419:200 0.000199223
99 *1247:C *419:200 4.10926e-05
100 *1248:B *419:200 7.6644e-05
101 *1260:B1 *419:176 5.54856e-05
102 *1260:B1 *419:187 0.000189448
103 *1261:B *419:176 7.57946e-05
104 *1261:B *419:187 0.000125731
105 *1279:C *1479:CLK 0
106 *1282:B1 *419:25 0
107 *1284:B *1481:CLK 0.000404888
108 *1285:A2 *419:25 0
109 *1288:B *419:35 0.0001399
110 *1317:B *419:10 5.45307e-05
111 *1465:D *1465:CLK 8.07313e-05
112 *1466:D *419:56 7.17235e-05
113 *1466:D *419:60 2.89016e-05
114 *1467:D *419:60 4.58605e-05
115 *1467:D *419:64 3.34672e-05
116 *1470:D *419:100 0
117 *1472:D *1472:CLK 0.000101233
118 *1475:D *1475:CLK 0
119 *1475:D *419:50 0
120 *1477:D *419:217 0.000147136
121 *1478:D *1479:CLK 5.29648e-05
122 *1479:D *1479:CLK 0.00013001
123 *1480:D *419:10 4.13122e-06
124 *1480:D *419:25 0.00012891
125 *1482:D *419:35 0.000574224
126 *79:34 *1479:CLK 0.000614974
127 *81:18 *1479:CLK 0
128 *81:18 *419:217 0
129 *125:87 *1480:CLK 1.83053e-05
130 *134:52 *419:25 4.19624e-06
131 *140:8 *419:89 4.01319e-05
132 *144:29 *1470:CLK 3.42426e-05
133 *147:26 *419:72 3.11905e-05
134 *256:10 *419:200 0.000567893
135 *259:48 *419:35 0.000103031
136 *259:50 *419:35 0.000260574
137 *267:6 *1476:CLK 2.59355e-05
138 *279:8 *1479:CLK 0.000190541
139 *279:12 *1479:CLK 6.64337e-05
140 *288:12 *1481:CLK 5.52238e-05
141 *288:12 *419:25 0
142 *415:22 *1480:CLK 2.84026e-05
*RES
1 *1446:GCLK *419:10 16.3893 
2 *419:10 *1480:CLK 14.3357 
3 *419:10 *419:25 8.52679 
4 *419:25 *419:35 23.4955 
5 *419:35 *419:41 9.33482 
6 *419:41 *1473:CLK 13.8 
7 *419:41 *419:50 3.16071 
8 *419:50 *419:56 11.2143 
9 *419:56 *419:60 7.91071 
10 *419:60 *419:64 7.05357 
11 *419:64 *419:72 8.80357 
12 *419:72 *1468:CLK 20.3893 
13 *419:72 *419:89 8.57143 
14 *419:89 *1469:CLK 14.3357 
15 *419:89 *419:100 2.55357 
16 *419:100 *419:102 2.25 
17 *419:102 *1472:CLK 20.1571 
18 *419:102 *1471:CLK 15.5857 
19 *419:100 *1470:CLK 17.6214 
20 *419:64 *1467:CLK 9.3 
21 *419:60 *1465:CLK 18.3536 
22 *419:56 *1466:CLK 9.3 
23 *419:50 *1475:CLK 15.7464 
24 *419:35 *1482:CLK 9.3 
25 *419:25 *419:174 0.535714 
26 *419:174 *419:176 2.40179 
27 *419:176 *1476:CLK 14.3357 
28 *419:176 *419:187 4.98214 
29 *419:187 *1474:CLK 13.8 
30 *419:187 *419:200 16.1071 
31 *419:200 *1477:CLK 9.72857 
32 *419:200 *419:217 23.5357 
33 *419:217 *1479:CLK 26.8536 
34 *419:217 *1478:CLK 13.8 
35 *419:174 *1481:CLK 18.8446 
*END

*D_NET *420 0.00948614
*CONN
*I *1598:addr[6] I *D tt_rom
*I *1169:A I *D sky130_fd_sc_hd__or4b_2
*I *1081:Y O *D sky130_fd_sc_hd__nand2_2
*CAP
1 *1598:addr[6] 0.000137606
2 *1169:A 0.000157007
3 *1081:Y 0.000364014
4 *420:37 0.00183107
5 *420:10 0.00221448
6 *1169:A *447:18 0
7 *1169:A *572:49 8.40344e-05
8 *1598:addr[6] *1598:addr[5] 9.63368e-06
9 *1598:addr[6] *1598:addr[8] 8.0345e-06
10 *420:37 *1102:B1 2.22594e-05
11 *420:37 *1103:A 0.000139913
12 *420:37 *1103:B 5.52238e-05
13 *420:37 *1598:addr[0] 0.000169615
14 *420:37 *1598:addr[4] 0.000684689
15 *420:37 *1598:addr[7] 5.33005e-05
16 *420:37 *1598:addr[8] 0.000303382
17 *420:37 *1598:addr[9] 7.42715e-06
18 *420:37 *421:36 0.000146765
19 *420:37 *424:20 0.00210687
20 *420:37 *578:43 6.83971e-05
21 *1101:A1 *1169:A 3.76291e-05
22 *1104:A *420:37 7.74578e-05
23 *1169:B *1169:A 1.95735e-05
24 *138:8 *420:10 0.00010096
25 *138:19 *420:10 0.000406153
26 *138:19 *420:37 8.57023e-05
27 *149:23 *1169:A 9.41642e-05
28 *164:22 *1169:A 4.58194e-05
29 *214:12 *420:10 5.49489e-05
*RES
1 *1081:Y *420:10 15.7286 
2 *420:10 *1169:A 21.4964 
3 *420:10 *420:37 48.9464 
4 *420:37 *1598:addr[6] 6.5 
*END

*D_NET *421 0.00874132
*CONN
*I *1598:addr[7] I *D tt_rom
*I *1100:Y O *D sky130_fd_sc_hd__xnor2_2
*CAP
1 *1598:addr[7] 0.000177137
2 *1100:Y 0.00256491
3 *421:36 0.00274204
4 *421:36 *1103:A 5.23142e-05
5 *421:36 *1598:addr[0] 0.000547236
6 *421:36 *1598:addr[1] 0.000518215
7 *421:36 *1598:addr[4] 0.000604734
8 *421:36 *1598:addr[5] 0.000559121
9 *421:36 *1598:addr[9] 4.23339e-05
10 *421:36 *1598:addr[10] 2.1599e-05
11 *421:36 *1598:addr[11] 0.00030036
12 *1104:A *421:36 0.000319749
13 *1110:B *421:36 9.15056e-05
14 *420:37 *1598:addr[7] 5.33005e-05
15 *420:37 *421:36 0.000146765
*RES
1 *1100:Y *421:36 48.861 
2 *421:36 *1598:addr[7] 12.0893 
*END

*D_NET *422 0.00284608
*CONN
*I *1598:addr[8] I *D tt_rom
*I *1105:X O *D sky130_fd_sc_hd__xor2_2
*CAP
1 *1598:addr[8] 0.00104825
2 *1105:X 0.00104825
3 *1598:addr[8] *1368:B1 0.000276211
4 *1598:addr[8] *1598:addr[9] 8.03331e-05
5 *1598:addr[8] *1598:addr[10] 6.58704e-05
6 *1598:addr[8] *1598:addr[11] 1.03245e-05
7 *1598:addr[8] *424:20 5.41797e-06
8 *1598:addr[6] *1598:addr[8] 8.0345e-06
9 *420:37 *1598:addr[8] 0.000303382
*RES
1 *1105:X *1598:addr[8] 43.2286 
*END

*D_NET *423 0.00373112
*CONN
*I *1598:addr[9] I *D tt_rom
*I *1110:Y O *D sky130_fd_sc_hd__xnor2_2
*CAP
1 *1598:addr[9] 0.0014726
2 *1110:Y 0.0014726
3 *1598:addr[9] *1598:addr[5] 0.000358523
4 *1598:addr[9] *1598:addr[10] 0.000120916
5 *1598:addr[9] *1598:addr[11] 0.00012403
6 *1598:addr[9] *424:20 5.23496e-05
7 *1598:addr[8] *1598:addr[9] 8.03331e-05
8 *420:37 *1598:addr[9] 7.42715e-06
9 *421:36 *1598:addr[9] 4.23339e-05
*RES
1 *1110:Y *1598:addr[9] 33.3698 
*END

*D_NET *424 0.0132228
*CONN
*I *1598:addr[10] I *D tt_rom
*I *1117:Y O *D sky130_fd_sc_hd__xnor2_2
*CAP
1 *1598:addr[10] 0.000374334
2 *1117:Y 0.000360188
3 *424:20 0.0031997
4 *424:14 0.00318555
5 *1598:addr[10] *1598:addr[5] 3.81355e-05
6 *1598:addr[10] *1598:addr[11] 0.000129094
7 *424:14 *1079:C 0
8 *424:14 *1183:A 0.000102197
9 *424:14 *1552:A 0
10 *424:14 *445:12 0
11 *424:14 *528:78 2.11595e-05
12 *424:20 *1598:addr[4] 0.000815392
13 *424:20 *1598:addr[11] 6.28248e-05
14 *424:20 *578:39 0.00228291
15 *1183:B *424:14 4.97207e-05
16 *1598:addr[8] *1598:addr[10] 6.58704e-05
17 *1598:addr[8] *424:20 5.41797e-06
18 *1598:addr[9] *1598:addr[10] 0.000120916
19 *1598:addr[9] *424:20 5.23496e-05
20 *164:22 *424:14 0.000228558
21 *420:37 *424:20 0.00210687
22 *421:36 *1598:addr[10] 2.1599e-05
*RES
1 *1117:Y *424:14 24.675 
2 *424:14 *424:20 47.4018 
3 *424:20 *1598:addr[10] 11.4314 
*END

*D_NET *425 0.0132564
*CONN
*I *1598:addr[11] I *D tt_rom
*I *1123:Y O *D sky130_fd_sc_hd__xnor2_2
*CAP
1 *1598:addr[11] 0.00249994
2 *1123:Y 0.00249994
3 *1598:addr[11] *1183:A 0.000197829
4 *1598:addr[11] *1598:addr[0] 0.00490417
5 *1598:addr[11] *1598:addr[1] 0.000835377
6 *1598:addr[11] *1598:addr[4] 0.00124654
7 *1598:addr[11] *1598:addr[5] 8.76591e-06
8 *1117:A *1598:addr[11] 0.000129595
9 *1183:B *1598:addr[11] 0.000188778
10 *1483:D *1598:addr[11] 4.32751e-05
11 *1595:A *1598:addr[11] 3.67257e-05
12 *1598:addr[8] *1598:addr[11] 1.03245e-05
13 *1598:addr[9] *1598:addr[11] 0.00012403
14 *1598:addr[10] *1598:addr[11] 0.000129094
15 *164:22 *1598:addr[11] 3.8849e-05
16 *421:36 *1598:addr[11] 0.00030036
17 *424:20 *1598:addr[11] 6.28248e-05
*RES
1 *1123:Y *1598:addr[11] 41.9317 
*END

*D_NET *426 0.0400006
*CONN
*I *1599:clk I *D incrementer
*I *1446:CLK I *D sky130_fd_sc_hd__dlclkp_2
*I *1447:CLK I *D sky130_fd_sc_hd__dfxtp_2
*I *1444:CLK I *D sky130_fd_sc_hd__dlclkp_2
*I *1499:CLK I *D sky130_fd_sc_hd__dfxtp_2
*I *1498:CLK I *D sky130_fd_sc_hd__dfxtp_2
*I *1496:CLK I *D sky130_fd_sc_hd__dfxtp_2
*I *1497:CLK I *D sky130_fd_sc_hd__dfxtp_2
*I *1494:CLK I *D sky130_fd_sc_hd__dfxtp_2
*I *1500:CLK I *D sky130_fd_sc_hd__dfxtp_2
*I *602:CLK I *D sky130_fd_sc_hd__dlclkp_2
*I *1501:CLK I *D sky130_fd_sc_hd__dfxtp_2
*I *1448:CLK I *D sky130_fd_sc_hd__dfxtp_2
*I *1445:CLK I *D sky130_fd_sc_hd__dlclkp_2
*I *1495:CLK I *D sky130_fd_sc_hd__dfxtp_2
*I *1572:X O *D sky130_fd_sc_hd__clkbuf_16
*CAP
1 *1599:clk 0.00311846
2 *1446:CLK 0.0034565
3 *1447:CLK 0
4 *1444:CLK 0.000618621
5 *1499:CLK 0
6 *1498:CLK 2.23854e-05
7 *1496:CLK 0.000279184
8 *1497:CLK 3.72884e-05
9 *1494:CLK 0.000183947
10 *1500:CLK 0
11 *602:CLK 0.00142394
12 *1501:CLK 0.0001125
13 *1448:CLK 1.55834e-05
14 *1445:CLK 0.000218174
15 *1495:CLK 5.39286e-05
16 *1572:X 0.00125386
17 *426:176 0.000539878
18 *426:133 0.000603856
19 *426:89 0.00135043
20 *426:87 0.000743679
21 *426:70 0.000706845
22 *426:59 0.000270118
23 *426:41 0.000482368
24 *426:28 0.000352175
25 *426:26 0.000306239
26 *426:22 0.000720035
27 *426:20 0.000643359
28 *426:16 0.00231629
29 *426:12 0.00258261
30 *602:CLK *1229:B 0.000383542
31 *602:CLK *429:50 0
32 *602:CLK *526:93 0.000136792
33 *602:CLK *589:146 8.20403e-05
34 *1444:CLK *1201:A 2.70899e-05
35 *1444:CLK *1492:RESET_B 0
36 *1444:CLK *528:12 0.000101006
37 *1444:CLK *533:111 0
38 *1444:CLK *587:70 0.000409513
39 *1445:CLK *1179:A 9.23759e-05
40 *1446:CLK *593:68 2.2351e-05
41 *1448:CLK *1523:A 1.92789e-05
42 *1448:CLK *597:14 5.52238e-05
43 *1494:CLK *457:42 2.99773e-05
44 *1494:CLK *472:25 0.000106552
45 *1494:CLK *472:39 0.000171729
46 *1495:CLK *1199:A 5.71472e-05
47 *1501:CLK *587:70 0
48 *1501:CLK *597:14 4.00395e-05
49 *1599:clk *1599:rst_n 6.28811e-05
50 *1599:clk *1599:inc 6.31818e-06
51 *1599:clk *1602:B 0.000720485
52 *1599:clk *441:21 0.000107617
53 *1599:clk *575:26 0.00126344
54 *1599:clk *580:28 7.79585e-05
55 *1599:clk *581:36 0.000436787
56 *1599:clk *584:46 4.73722e-05
57 *1599:clk *584:74 0.000106493
58 *1599:clk *585:30 0.000215689
59 *1599:clk *586:30 0.000117717
60 *1599:clk *587:18 0.000130499
61 *1599:clk *588:22 1.49122e-05
62 *1599:clk *594:34 0.000664762
63 *1599:clk *594:46 0.00126987
64 *426:12 *480:12 0.000227526
65 *426:16 *1140:A 0.000114268
66 *426:16 *1140:B 0.000573176
67 *426:16 *1144:A 0.000437821
68 *426:16 *1144:B 0.000122921
69 *426:16 *1149:A 0.000315158
70 *426:16 *1149:B 0.000227175
71 *426:16 *1413:A 9.60939e-05
72 *426:16 *1413:B 4.88637e-05
73 *426:22 *1195:A 4.10843e-05
74 *426:22 *453:26 1.5872e-05
75 *426:59 *1139:B 0.000363257
76 *426:59 *1523:A 0.000167447
77 *426:59 *597:14 8.23203e-05
78 *426:70 *597:14 1.34436e-05
79 *426:87 *587:70 0.000397603
80 *426:87 *588:84 0
81 *426:89 *526:93 8.2958e-06
82 *426:176 *1233:B 7.23844e-05
83 *426:176 *1447:D 0.000116805
84 uo_out[3] *426:28 4.87536e-05
85 uo_out[3] *426:41 1.88048e-05
86 *1129:A3 *1446:CLK 3.04117e-05
87 *1195:B *426:22 0.000233801
88 *1195:B *426:26 0
89 *1196:B1 *426:20 2.69366e-05
90 *1196:B1 *426:22 5.45307e-05
91 *1196:B2 *1445:CLK 5.048e-05
92 *1199:B *1495:CLK 3.07696e-05
93 *1200:A *426:22 4.97338e-05
94 *1200:A *426:133 0
95 *1200:B *426:22 5.33005e-05
96 *1200:B *426:26 0
97 *1232:B *1599:clk 3.43988e-06
98 *1234:B *426:176 0
99 *1279:C *426:89 2.72449e-05
100 *1292:A2 *602:CLK 0.000221682
101 *1317:B *1599:clk 0
102 *1319:A0 *1446:CLK 2.89016e-05
103 *1319:S *1446:CLK 0.000297004
104 *1323:B *1599:clk 1.92756e-05
105 *1328:A1 *1599:clk 5.74325e-05
106 *1360:A_N *1446:CLK 6.3198e-05
107 *1360:A_N *426:176 4.95821e-05
108 *1441:A1 *602:CLK 3.45059e-05
109 *1441:B2 *602:CLK 7.53309e-05
110 *1441:C1 *602:CLK 0.000360823
111 *1490:D *1444:CLK 0.000125724
112 *1492:CLK *1444:CLK 6.03481e-05
113 *1492:D *426:22 0.000307724
114 *1493:D *1444:CLK 0
115 *1496:D *1496:CLK 0.000624867
116 *1497:D *1445:CLK 1.65558e-05
117 *1497:D *426:28 0
118 *1497:D *426:41 0
119 *1498:D *1445:CLK 1.74352e-05
120 *1498:D *426:26 0
121 *1498:D *426:28 0
122 *1498:D *426:41 0
123 *1498:D *426:70 0
124 *1498:D *426:133 0.000190948
125 *1499:D *1444:CLK 0
126 *1499:D *426:20 5.05572e-05
127 *1500:D *602:CLK 0.000147583
128 *1500:D *426:89 1.02504e-05
129 *1514:CLK *426:12 2.2816e-05
130 *1514:CLK *426:16 9.83442e-05
131 *1514:D *426:12 4.87669e-06
132 *1515:D *426:16 0.000184745
133 *79:34 *1501:CLK 0.00010096
134 *81:18 *426:70 0.000102037
135 *81:18 *426:87 0.000118652
136 *82:20 *1444:CLK 0.000191574
137 *125:87 *602:CLK 0.000324519
138 *130:93 *1599:clk 4.70821e-05
139 *134:12 *602:CLK 3.14223e-05
140 *174:20 *1446:CLK 0.000201025
141 *174:20 *1599:clk 4.85631e-05
142 *179:18 *1446:CLK 9.16325e-06
143 *182:10 *426:16 2.95726e-05
144 *194:68 *1444:CLK 8.23597e-06
145 *194:68 *1494:CLK 3.50062e-05
146 *218:37 *1444:CLK 5.72433e-05
147 *218:37 *426:16 0.000614046
148 *221:10 *426:16 0.0001202
149 *221:10 *426:20 4.55215e-05
150 *276:10 *1494:CLK 0.000128154
151 *282:12 *1494:CLK 6.05198e-05
152 *282:12 *426:89 0.000279546
153 *284:12 *1494:CLK 0.000134024
154 *284:12 *426:89 0.000108912
155 *319:12 *1446:CLK 0.000195003
156 *335:26 *1599:clk 2.06112e-05
157 *418:23 *1444:CLK 4.00301e-05
158 *418:119 *1444:CLK 1.37292e-05
159 *419:217 *1496:CLK 0.000405304
*RES
1 *1572:X *426:12 28.0679 
2 *426:12 *426:16 30.5357 
3 *426:16 *426:20 4.96429 
4 *426:20 *426:22 7.10714 
5 *426:22 *426:26 7.05357 
6 *426:26 *426:28 2.25 
7 *426:28 *1495:CLK 14.8714 
8 *426:28 *426:41 2.85714 
9 *426:41 *1445:CLK 8.29464 
10 *426:41 *426:59 8.73214 
11 *426:59 *1448:CLK 9.83571 
12 *426:59 *426:70 7.8125 
13 *426:70 *1501:CLK 16.2375 
14 *426:70 *426:87 8.23627 
15 *426:87 *426:89 3.91964 
16 *426:89 *602:CLK 34.6786 
17 *426:89 *1500:CLK 13.8 
18 *426:87 *1494:CLK 19.5411 
19 *426:26 *1497:CLK 14.3357 
20 *426:22 *426:133 5.375 
21 *426:133 *1496:CLK 17.2464 
22 *426:133 *1498:CLK 9.72857 
23 *426:20 *1499:CLK 9.3 
24 *426:16 *1444:CLK 22.7857 
25 *602:CLK *426:176 13.1429 
26 *426:176 *1447:CLK 9.3 
27 *426:176 *1446:CLK 17.4464 
28 *1446:CLK *1599:clk 32.3273 
*END

*D_NET *427 0.0204894
*CONN
*I *1461:CLK I *D sky130_fd_sc_hd__dfrtp_2
*I *1456:CLK I *D sky130_fd_sc_hd__dfrtp_2
*I *1464:CLK I *D sky130_fd_sc_hd__dfrtp_2
*I *1463:CLK I *D sky130_fd_sc_hd__dfrtp_2
*I *1462:CLK I *D sky130_fd_sc_hd__dfrtp_2
*I *1460:CLK I *D sky130_fd_sc_hd__dfrtp_2
*I *1458:CLK I *D sky130_fd_sc_hd__dfrtp_2
*I *1457:CLK I *D sky130_fd_sc_hd__dfrtp_2
*I *1455:CLK I *D sky130_fd_sc_hd__dfrtp_2
*I *1452:CLK I *D sky130_fd_sc_hd__dfrtp_2
*I *1453:CLK I *D sky130_fd_sc_hd__dfstp_2
*I *1451:CLK I *D sky130_fd_sc_hd__dfrtp_2
*I *1449:CLK I *D sky130_fd_sc_hd__dfrtp_2
*I *1459:CLK I *D sky130_fd_sc_hd__dfrtp_2
*I *1450:CLK I *D sky130_fd_sc_hd__dfrtp_2
*I *1454:CLK I *D sky130_fd_sc_hd__dfrtp_2
*I *602:GCLK O *D sky130_fd_sc_hd__dlclkp_2
*CAP
1 *1461:CLK 2.37855e-05
2 *1456:CLK 9.93317e-05
3 *1464:CLK 3.57378e-05
4 *1463:CLK 0.000105979
5 *1462:CLK 0
6 *1460:CLK 3.99336e-05
7 *1458:CLK 0.000383929
8 *1457:CLK 5.13443e-05
9 *1455:CLK 0
10 *1452:CLK 4.5887e-05
11 *1453:CLK 0.000272204
12 *1451:CLK 9.19518e-05
13 *1449:CLK 0.000291517
14 *1459:CLK 4.24516e-05
15 *1450:CLK 0.000149023
16 *1454:CLK 0.000241912
17 *602:GCLK 0.000559901
18 *427:146 0.000543506
19 *427:117 0.000546831
20 *427:115 0.000277804
21 *427:113 0.000959194
22 *427:103 0.00126797
23 *427:88 0.000623223
24 *427:82 0.000434536
25 *427:78 0.000517636
26 *427:65 0.000564397
27 *427:61 0.000897049
28 *427:46 0.0010011
29 *427:40 0.000791445
30 *427:38 0.000452692
31 *427:14 0.000720461
32 *427:10 0.000914191
33 *1449:CLK *1219:B 1.035e-05
34 *1449:CLK *1462:RESET_B 0.000242355
35 *1450:CLK *1230:A 3.18676e-05
36 *1451:CLK *1219:B 0.000121411
37 *1451:CLK *1220:A 0
38 *1451:CLK *1329:S1 2.30116e-06
39 *1451:CLK *591:22 4.51217e-05
40 *1452:CLK *589:14 7.57394e-05
41 *1453:CLK *1565:A 0
42 *1453:CLK *530:96 6.61256e-05
43 *1454:CLK *1563:A 1.01912e-05
44 *1456:CLK *1126:A1 0
45 *1456:CLK *1129:B2 3.17163e-05
46 *1457:CLK *436:38 9.56151e-05
47 *1457:CLK *443:25 6.61173e-05
48 *1459:CLK *1326:A0 5.15925e-05
49 *1459:CLK *1464:RESET_B 5.33005e-05
50 *1459:CLK *1561:A 5.49489e-05
51 *1459:CLK *433:12 5.31101e-05
52 *1463:CLK *1221:A 0
53 *1463:CLK *591:30 0.000162125
54 *1464:CLK *434:16 5.31101e-05
55 *427:10 *1233:B 3.92854e-05
56 *427:14 *1230:A 0
57 *427:14 *1459:RESET_B 0
58 *427:14 *430:20 0
59 *427:14 *581:100 0
60 *427:38 *569:28 0.00014285
61 *427:40 *1234:A 0.000276682
62 *427:40 *569:28 0.000271345
63 *427:46 *1223:B 0
64 *427:46 *1227:B 1.01075e-05
65 *427:46 *1232:A 0.00016236
66 *427:46 *1322:A0 5.64168e-05
67 *427:46 *1322:A1 4.75956e-06
68 *427:46 *1326:A0 7.83659e-05
69 *427:46 *433:12 6.73939e-05
70 *427:61 *1224:A 0.000254036
71 *427:61 *1464:RESET_B 0.000176201
72 *427:65 *1224:A 0.000266479
73 *427:78 *1219:B 2.9977e-05
74 *427:78 *1221:A 0
75 *427:78 *1462:RESET_B 0.000121411
76 *427:78 *434:45 2.30116e-06
77 *427:78 *591:30 4.11218e-05
78 *427:82 *1322:S0 0.000224583
79 *427:82 *1462:RESET_B 0.000260261
80 *427:82 *435:25 0.000233523
81 *427:82 *440:10 0.000107769
82 *427:88 *1329:A1 1.74352e-05
83 *427:88 *1331:A1 0.000181374
84 *427:88 *435:25 0.000115273
85 *427:88 *435:36 0.00014051
86 *427:103 *1329:S1 6.06243e-05
87 *427:103 *436:8 1.01487e-05
88 *427:103 *436:23 0.000197467
89 *427:103 *439:8 7.71346e-06
90 *427:103 *439:14 3.75052e-05
91 *427:103 *589:33 0.000335038
92 *427:113 *1329:A0 9.58181e-05
93 *427:113 *1554:A 7.00615e-05
94 *427:113 *439:14 0.000136744
95 *427:113 *588:22 0.000267814
96 *427:117 *1216:A 0.000281581
97 *427:117 *1565:A 0
98 *602:GATE *427:10 8.86413e-05
99 *1130:A_N *427:10 1.79279e-05
100 *1173:B *427:10 0.000148911
101 *1212:B *1458:CLK 0
102 *1214:B *1458:CLK 0
103 *1214:B *427:115 0
104 *1214:B *427:117 0
105 *1214:B *427:146 0
106 *1218:B *1453:CLK 0
107 *1220:B *1451:CLK 1.69115e-05
108 *1222:B *1449:CLK 0
109 *1230:B *427:10 0
110 *1230:B *427:14 0
111 *1234:B *427:10 0
112 *1327:C *1456:CLK 0
113 *1327:C *427:46 9.07065e-05
114 *1332:B1 *427:88 4.65258e-05
115 *1449:D *1449:CLK 8.07313e-05
116 *1453:D *1452:CLK 5.49544e-05
117 *1453:D *1453:CLK 0.000190053
118 *1454:D *1454:CLK 0
119 *1454:D *427:14 0.000125316
120 *1455:D *427:115 3.4846e-06
121 *1455:D *427:117 4.9305e-05
122 *1456:D *1456:CLK 2.28335e-05
123 *1456:D *427:40 9.99853e-05
124 *1457:D *1458:CLK 0.000161327
125 *1457:D *427:146 5.71124e-05
126 *1458:D *1458:CLK 3.17465e-05
127 *1460:D *427:103 3.24856e-05
128 *1461:D *427:38 7.03295e-05
129 *1461:D *427:40 7.77751e-05
130 *179:29 *427:10 5.33005e-05
131 *242:20 *1464:CLK 1.27126e-05
132 *242:20 *427:46 0
*RES
1 *602:GCLK *427:10 21.3893 
2 *427:10 *427:14 9.78571 
3 *427:14 *1454:CLK 22.2107 
4 *427:14 *1450:CLK 11.8893 
5 *427:10 *427:38 5.85714 
6 *427:38 *427:40 8.75 
7 *427:40 *427:46 10.5357 
8 *427:46 *1459:CLK 15.0679 
9 *427:46 *427:61 12.8393 
10 *427:61 *427:65 7.08929 
11 *427:65 *1449:CLK 19.9607 
12 *427:65 *427:78 1.94643 
13 *427:78 *427:82 13.25 
14 *427:82 *427:88 8.33929 
15 *427:88 *1451:CLK 16.05 
16 *427:88 *427:103 13.4821 
17 *427:103 *427:113 24.8929 
18 *427:113 *427:115 1.03571 
19 *427:115 *427:117 4.67857 
20 *427:117 *1453:CLK 19.3536 
21 *427:117 *1452:CLK 15.1571 
22 *427:115 *1455:CLK 13.8 
23 *427:113 *427:146 1.94643 
24 *427:146 *1457:CLK 15.5679 
25 *427:146 *1458:CLK 21.2107 
26 *427:103 *1460:CLK 10.0321 
27 *427:82 *1462:CLK 9.3 
28 *427:78 *1463:CLK 16.05 
29 *427:61 *1464:CLK 19.0321 
30 *427:40 *1456:CLK 20.2464 
31 *427:38 *1461:CLK 9.72857 
*END

*D_NET *428 0.0034319
*CONN
*I *1543:A I *D sky130_fd_sc_hd__clkdlybuf4s25_1
*I *1544:A I *D sky130_fd_sc_hd__clkdlybuf4s25_1
*I *1172:X O *D sky130_fd_sc_hd__and3b_2
*CAP
1 *1543:A 0.000532726
2 *1544:A 0.000146664
3 *1172:X 0.000236001
4 *428:10 0.000915391
5 *1543:A *1124:B 5.03894e-05
6 *1543:A *1125:C_N 5.46551e-05
7 *1543:A *1450:RESET_B 0
8 *1543:A *579:56 0.000129478
9 *1543:A *582:55 0
10 *428:10 *1153:B 1.02504e-05
11 *428:10 *429:42 0.000437927
12 *1125:B *1543:A 5.52302e-05
13 *1154:B *1543:A 0.000342232
14 *1154:B *428:10 1.19402e-05
15 *1155:B *1543:A 5.33005e-05
16 *195:8 *428:10 8.11393e-05
17 *197:12 *428:10 6.08429e-05
18 *198:12 *1543:A 0.000127446
19 *320:24 *1543:A 6.87574e-05
20 *320:24 *1544:A 0.000117533
*RES
1 *1172:X *428:10 24.1929 
2 *428:10 *1544:A 11.9071 
3 *428:10 *1543:A 30.1393 
*END

*D_NET *429 0.0144288
*CONN
*I *1399:A1 I *D sky130_fd_sc_hd__o211a_2
*I *1233:A I *D sky130_fd_sc_hd__nor2_2
*I *1229:A I *D sky130_fd_sc_hd__nor2_2
*I *1232:A I *D sky130_fd_sc_hd__xnor2_2
*I *1322:A0 I *D sky130_fd_sc_hd__mux4_2
*I *1461:Q O *D sky130_fd_sc_hd__dfrtp_2
*CAP
1 *1399:A1 0.000683407
2 *1233:A 9.11871e-05
3 *1229:A 0
4 *1232:A 9.98249e-05
5 *1322:A0 0.000196689
6 *1461:Q 7.26651e-05
7 *429:50 0.000515104
8 *429:42 0.00143144
9 *429:16 0.00127606
10 *429:8 0.00137633
11 *1322:A0 *432:18 1.00733e-05
12 *1322:A0 *432:22 0.00011532
13 *1322:A0 *433:12 0.0001839
14 *1322:A0 *433:14 0.000227251
15 *1322:A0 *589:130 0
16 *1399:A1 *1398:A2 0.000201965
17 *1399:A1 *528:30 0.00133616
18 *1399:A1 *575:30 1.41637e-05
19 *1399:A1 *600:27 1.28809e-05
20 *429:8 *1461:RESET_B 9.60875e-05
21 *429:16 *1228:A 0.000185368
22 *429:16 *1326:S 9.86146e-05
23 *429:16 *1461:RESET_B 8.11028e-06
24 *429:16 *430:20 2.05642e-05
25 *429:16 *432:14 5.20669e-05
26 *429:16 *432:18 0.000111116
27 *429:16 *432:22 5.52302e-05
28 *429:16 *581:100 0.000944694
29 *429:16 *582:66 0.000220306
30 *429:16 *589:120 0.000228136
31 *429:42 *1153:B 8.1288e-05
32 *429:42 *1172:B 0.000208694
33 *429:42 *1461:RESET_B 2.56694e-05
34 *429:42 *579:56 1.98729e-05
35 *429:42 *582:66 0.000283001
36 *429:50 *1229:B 0
37 *429:50 *575:30 0.000182722
38 *429:50 *593:104 5.27484e-05
39 *602:CLK *429:50 0
40 *1154:B *429:16 0
41 *1154:B *429:42 0
42 *1228:B *429:16 9.22015e-05
43 *1234:B *1233:A 3.4879e-05
44 *1281:B1 *1233:A 0.000244835
45 *1292:A1 *1233:A 3.46775e-05
46 *1335:C *1399:A1 0.000509348
47 *1335:C *429:50 0.000409766
48 *1358:A *429:42 0.000117776
49 *1358:B *429:42 5.25862e-06
50 *1399:A2 *1399:A1 1.40727e-05
51 *1399:B1 *1399:A1 2.09697e-05
52 *125:87 *1399:A1 0.000312199
53 *125:87 *429:50 0.00013182
54 *134:12 *429:50 7.69776e-06
55 *242:20 *1322:A0 0.000270045
56 *355:18 *1399:A1 0.000802223
57 *362:14 *1399:A1 4.55678e-05
58 *427:46 *1232:A 0.00016236
59 *427:46 *1322:A0 5.64168e-05
60 *428:10 *429:42 0.000437927
*RES
1 *1461:Q *429:8 14.7464 
2 *429:8 *429:16 30.0536 
3 *429:16 *1322:A0 19.6036 
4 *429:16 *1232:A 16.05 
5 *429:8 *429:42 13.4011 
6 *429:42 *429:50 9.994 
7 *429:50 *1229:A 9.3 
8 *429:50 *1233:A 12.3357 
9 *429:42 *1399:A1 21.9764 
*END

*D_NET *430 0.00940657
*CONN
*I *1229:B I *D sky130_fd_sc_hd__nor2_2
*I *1570:A I *D sky130_fd_sc_hd__dlygate4sd3_1
*I *1322:A1 I *D sky130_fd_sc_hd__mux4_2
*I *1227:B I *D sky130_fd_sc_hd__nor2_2
*I *1450:Q O *D sky130_fd_sc_hd__dfrtp_2
*CAP
1 *1229:B 0.000401857
2 *1570:A 0
3 *1322:A1 0.000563569
4 *1227:B 0.000398573
5 *1450:Q 0.000708019
6 *430:54 0.000645237
7 *430:20 0.0016319
8 *430:12 0.00162116
9 *1227:B *1326:A0 0.000154944
10 *1227:B *431:28 0
11 *1227:B *589:130 0
12 *1229:B *589:146 0
13 *1322:A1 *1224:A 9.87983e-06
14 *1322:A1 *1463:RESET_B 1.90936e-05
15 *1322:A1 *433:14 9.90431e-05
16 *1322:A1 *580:53 0.000215346
17 *1322:A1 *581:61 2.89452e-05
18 *1322:A1 *583:22 1.15117e-05
19 *430:12 *1230:A 0.000128154
20 *430:12 *1450:RESET_B 0.000135163
21 *430:12 *585:69 1.56051e-05
22 *430:12 *585:94 2.85276e-05
23 *430:12 *589:146 8.47059e-05
24 *430:20 *1228:A 4.72917e-05
25 *430:20 *1230:A 3.34366e-05
26 *430:20 *432:14 8.51331e-05
27 *430:20 *432:18 0.000313621
28 *430:20 *581:100 0.000261246
29 *430:54 *589:146 0
30 *602:CLK *1229:B 0.000383542
31 *602:GATE *1229:B 0.000156704
32 *602:GATE *430:54 1.02504e-05
33 *1226:B *1227:B 0.000144498
34 *1228:B *430:20 0.00027068
35 *1230:B *1229:B 0.000179107
36 *1230:B *430:20 7.7863e-05
37 *1230:B *430:54 0.000178752
38 *1450:D *430:12 0.000102664
39 *1454:D *430:20 5.52302e-05
40 *1459:D *1227:B 7.27671e-05
41 *242:20 *1322:A1 9.71197e-05
42 *427:14 *430:20 0
43 *427:46 *1227:B 1.01075e-05
44 *427:46 *1322:A1 4.75956e-06
45 *429:16 *430:20 2.05642e-05
46 *429:50 *1229:B 0
*RES
1 *1450:Q *430:12 23.9518 
2 *430:12 *430:20 22.7411 
3 *430:20 *1227:B 20.3714 
4 *430:20 *1322:A1 23.1759 
5 *430:12 *430:54 4.83036 
6 *430:54 *1570:A 13.8 
7 *430:54 *1229:B 22.5679 
*END

*D_NET *431 0.00627085
*CONN
*I *1563:A I *D sky130_fd_sc_hd__dlygate4sd3_1
*I *1326:A0 I *D sky130_fd_sc_hd__mux2_1
*I *1227:A I *D sky130_fd_sc_hd__nor2_2
*I *1225:A I *D sky130_fd_sc_hd__nor2_2
*I *1454:Q O *D sky130_fd_sc_hd__dfrtp_2
*CAP
1 *1563:A 9.8034e-06
2 *1326:A0 7.21198e-05
3 *1227:A 0
4 *1225:A 0.000169012
5 *1454:Q 0.000336562
6 *431:28 0.000420858
7 *431:18 0.000814848
8 *431:16 0.000837249
9 *1225:A *1225:B 0.00010096
10 *1326:A0 *1225:B 0
11 *1326:A0 *433:12 9.22222e-06
12 *431:16 *1449:RESET_B 0.000336758
13 *431:16 *1454:RESET_B 0
14 *431:16 *578:18 2.42532e-05
15 *431:16 *580:53 0.000832796
16 *431:16 *582:55 6.52967e-05
17 *431:18 *1449:RESET_B 0.000340693
18 *431:18 *580:53 0.00114975
19 *431:28 *1225:B 8.71137e-05
20 *431:28 *1449:RESET_B 0.00010514
21 *431:28 *580:53 0.000204266
22 *1226:B *1225:A 4.88637e-05
23 *1227:B *1326:A0 0.000154944
24 *1227:B *431:28 0
25 *1454:CLK *1563:A 1.01912e-05
26 *1454:D *1563:A 1.01912e-05
27 *1459:CLK *1326:A0 5.15925e-05
28 *427:46 *1326:A0 7.83659e-05
*RES
1 *1454:Q *431:16 19.6387 
2 *431:16 *431:18 1.84867 
3 *431:18 *431:28 11.1828 
4 *431:28 *1225:A 12.7464 
5 *431:28 *1227:A 9.3 
6 *431:18 *1326:A0 19.3082 
7 *431:16 *1563:A 17.4868 
*END

*D_NET *432 0.00492334
*CONN
*I *1557:A I *D sky130_fd_sc_hd__dlygate4sd3_1
*I *1326:A1 I *D sky130_fd_sc_hd__mux2_1
*I *1223:A I *D sky130_fd_sc_hd__nor2_2
*I *1225:B I *D sky130_fd_sc_hd__nor2_2
*I *1459:Q O *D sky130_fd_sc_hd__dfrtp_2
*CAP
1 *1557:A 0
2 *1326:A1 0
3 *1223:A 0.000192743
4 *1225:B 0.000325033
5 *1459:Q 0.000433679
6 *432:22 0.000613039
7 *432:18 0.000171244
8 *432:14 0.000509662
9 *1223:A *1223:B 0.000576016
10 *1223:A *1324:S 0
11 *1223:A *441:8 0.000123288
12 *1223:A *441:21 0.000219599
13 *1225:B *1223:B 7.36162e-05
14 *1225:B *1463:RESET_B 0
15 *1225:B *433:12 0
16 *1225:B *585:44 0
17 *432:14 *1459:RESET_B 4.85567e-05
18 *432:14 *1561:A 4.00276e-06
19 *432:18 *1326:S 9.86146e-05
20 *432:22 *589:120 0.000258494
21 *1225:A *1225:B 0.00010096
22 *1226:B *1225:B 5.52238e-05
23 *1228:B *432:14 0.00012401
24 *1322:A0 *432:18 1.00733e-05
25 *1322:A0 *432:22 0.00011532
26 *1323:B *1223:A 7.1724e-05
27 *1326:A0 *1225:B 0
28 *242:20 *432:22 9.41642e-05
29 *429:16 *432:14 5.20669e-05
30 *429:16 *432:18 0.000111116
31 *429:16 *432:22 5.52302e-05
32 *430:20 *432:14 8.51331e-05
33 *430:20 *432:18 0.000313621
34 *431:28 *1225:B 8.71137e-05
*RES
1 *1459:Q *432:14 24.7107 
2 *432:14 *432:18 3.42857 
3 *432:18 *432:22 7.91071 
4 *432:22 *1225:B 20.0321 
5 *432:22 *1223:A 21.2107 
6 *432:18 *1326:A1 9.3 
7 *432:14 *1557:A 9.3 
*END

*D_NET *433 0.00706969
*CONN
*I *1561:A I *D sky130_fd_sc_hd__dlygate4sd3_1
*I *1223:B I *D sky130_fd_sc_hd__nor2_2
*I *1221:A I *D sky130_fd_sc_hd__nor2_2
*I *1322:A2 I *D sky130_fd_sc_hd__mux4_2
*I *1464:Q O *D sky130_fd_sc_hd__dfrtp_2
*CAP
1 *1561:A 0.000617828
2 *1223:B 0.000219476
3 *1221:A 0.000613005
4 *1322:A2 0.000152439
5 *1464:Q 0
6 *433:14 0.00112713
7 *433:12 0.000794133
8 *433:4 0.000830803
9 *1221:A *1322:S1 1.90936e-05
10 *1221:A *434:16 1.36181e-05
11 *1221:A *585:44 8.84922e-05
12 *1223:B *594:46 1.02504e-05
13 *1322:A2 *1322:S1 5.52238e-05
14 *1322:A2 *434:20 0.00014285
15 *1561:A *1226:A 3.1367e-05
16 *1561:A *1464:RESET_B 7.47256e-05
17 *1561:A *589:130 0
18 *433:14 *1322:S1 5.52302e-05
19 *1222:B *1221:A 9.80173e-05
20 *1223:A *1223:B 0.000576016
21 *1225:B *1223:B 7.36162e-05
22 *1225:B *433:12 0
23 *1228:B *1561:A 7.83587e-05
24 *1232:B *1223:B 1.58619e-05
25 *1322:A0 *433:12 0.0001839
26 *1322:A0 *433:14 0.000227251
27 *1322:A1 *433:14 9.90431e-05
28 *1326:A0 *433:12 9.22222e-06
29 *1459:CLK *1561:A 5.49489e-05
30 *1459:CLK *433:12 5.31101e-05
31 *1463:CLK *1221:A 0
32 *1463:D *1221:A 4.37999e-05
33 *242:20 *1223:B 0.00055214
34 *242:20 *1322:A2 1.5424e-05
35 *242:20 *433:14 7.19209e-05
36 *427:46 *1223:B 0
37 *427:46 *433:12 6.73939e-05
38 *427:78 *1221:A 0
39 *432:14 *1561:A 4.00276e-06
*RES
1 *1464:Q *433:4 9.3 
2 *433:4 *433:12 12.7143 
3 *433:12 *433:14 5.05357 
4 *433:14 *1322:A2 11.4786 
5 *433:14 *1221:A 27.6036 
6 *433:12 *1223:B 26.6214 
7 *433:4 *1561:A 26.8 
*END

*D_NET *434 0.00678468
*CONN
*I *1322:A3 I *D sky130_fd_sc_hd__mux4_2
*I *1567:A I *D sky130_fd_sc_hd__dlygate4sd3_1
*I *1221:B I *D sky130_fd_sc_hd__nor2_2
*I *1219:B I *D sky130_fd_sc_hd__nor2_2
*I *1449:Q O *D sky130_fd_sc_hd__dfrtp_2
*CAP
1 *1322:A3 0
2 *1567:A 0.000271166
3 *1221:B 0
4 *1219:B 0.00099217
5 *1449:Q 0.000403999
6 *434:45 0.000411336
7 *434:20 0.00131651
8 *434:16 0.000588173
9 *1219:B *1329:A1 1.46148e-05
10 *1219:B *1331:A1 5.33005e-05
11 *1219:B *1451:RESET_B 4.85567e-05
12 *1219:B *1452:RESET_B 0.000388086
13 *1219:B *1560:A 9.71123e-06
14 *1219:B *435:10 0.000205699
15 *1219:B *435:36 9.58126e-05
16 *1219:B *436:8 0.000123126
17 *1567:A *1203:A 0.000181803
18 *1567:A *1327:A 0.000174232
19 *1567:A *1560:A 0.00011753
20 *1567:A *590:42 0.000181803
21 *1567:A *591:30 0.000184855
22 *434:16 *1449:RESET_B 2.18934e-05
23 *434:16 *1462:RESET_B 0
24 *434:16 *585:44 3.38136e-05
25 *434:20 *1322:S0 1.56e-05
26 *434:20 *1462:RESET_B 0.000181796
27 *434:45 *1322:S0 7.2754e-05
28 *434:45 *1560:A 2.78523e-05
29 *434:45 *591:30 0.000110126
30 *1221:A *434:16 1.36181e-05
31 *1222:B *1219:B 0
32 *1322:A2 *434:20 0.00014285
33 *1449:CLK *1219:B 1.035e-05
34 *1451:CLK *1219:B 0.000121411
35 *1464:CLK *434:16 5.31101e-05
36 *242:20 *434:16 0
37 *242:20 *434:20 0.000184745
38 *427:78 *1219:B 2.9977e-05
39 *427:78 *434:45 2.30116e-06
*RES
1 *1449:Q *434:16 24.4964 
2 *434:16 *434:20 8.73214 
3 *434:20 *1219:B 38.8 
4 *434:20 *434:45 3.16071 
5 *434:45 *1221:B 13.8 
6 *434:45 *1567:A 21.8893 
7 *434:16 *1322:A3 9.3 
*END

*D_NET *435 0.00834197
*CONN
*I *1217:A I *D sky130_fd_sc_hd__nor2_2
*I *1219:A I *D sky130_fd_sc_hd__nor2_2
*I *1331:A0 I *D sky130_fd_sc_hd__mux2_1
*I *1560:A I *D sky130_fd_sc_hd__dlygate4sd3_1
*I *1451:Q O *D sky130_fd_sc_hd__dfrtp_2
*CAP
1 *1217:A 0.000925231
2 *1219:A 0
3 *1331:A0 0
4 *1560:A 0.000263644
5 *1451:Q 0.000173019
6 *435:36 0.00115717
7 *435:25 0.00102397
8 *435:10 0.00122869
9 *1217:A *1214:A 0.000626406
10 *1217:A *1217:B 0.000578791
11 *1217:A *1329:A1 1.32056e-05
12 *1217:A *589:14 1.41029e-05
13 *1560:A *1203:A 0
14 *1560:A *1222:A 0.000290803
15 *1560:A *1322:S0 0.000148189
16 *435:25 *1462:RESET_B 5.03175e-05
17 *435:36 *1329:A1 1.93106e-05
18 *435:36 *1331:A1 1.38323e-05
19 *1216:B *1217:A 2.50479e-05
20 *1218:B *1217:A 0.00016522
21 *1219:B *1560:A 9.71123e-06
22 *1219:B *435:10 0.000205699
23 *1219:B *435:36 9.58126e-05
24 *1222:B *1560:A 0.000208513
25 *1222:B *435:10 7.6644e-05
26 *1452:D *1217:A 0.000393956
27 *1567:A *1560:A 0.00011753
28 *427:82 *435:25 0.000233523
29 *427:88 *435:25 0.000115273
30 *427:88 *435:36 0.00014051
31 *434:45 *1560:A 2.78523e-05
*RES
1 *1451:Q *435:10 16.6036 
2 *435:10 *1560:A 21.8179 
3 *435:10 *435:25 14.6071 
4 *435:25 *1331:A0 9.3 
5 *435:25 *435:36 4.26786 
6 *435:36 *1219:A 9.3 
7 *435:36 *1217:A 38.7821 
*END

*D_NET *436 0.00691879
*CONN
*I *1215:A I *D sky130_fd_sc_hd__nor2_2
*I *1217:B I *D sky130_fd_sc_hd__nor2_2
*I *1569:A I *D sky130_fd_sc_hd__dlygate4sd3_1
*I *1331:A1 I *D sky130_fd_sc_hd__mux2_1
*I *1452:Q O *D sky130_fd_sc_hd__dfrtp_2
*CAP
1 *1215:A 0
2 *1217:B 0.000473806
3 *1569:A 0
4 *1331:A1 6.67993e-05
5 *1452:Q 7.04041e-05
6 *436:38 0.00156434
7 *436:23 0.00132713
8 *436:8 0.0003738
9 *1217:B *1213:A 0.00013205
10 *1217:B *1214:A 1.92905e-05
11 *1217:B *1601:B 0
12 *1217:B *444:47 0.000182799
13 *1217:B *579:24 5.99352e-05
14 *1217:B *589:14 0.000428324
15 *1331:A1 *1329:A1 2.12087e-05
16 *436:8 *588:22 0
17 *436:23 *1329:A1 2.34204e-05
18 *436:23 *439:14 0.000148903
19 *436:23 *575:26 0.000101444
20 *436:23 *588:22 0
21 *436:23 *593:24 5.33005e-05
22 *436:38 *1213:A 2.14658e-05
23 *436:38 *1215:B 1.04232e-05
24 *436:38 *1329:A0 1.96125e-05
25 *436:38 *443:25 4.28004e-05
26 *436:38 *593:24 0.00011529
27 *1214:B *1217:B 0
28 *1216:B *1217:B 0.000104614
29 *1217:A *1217:B 0.000578791
30 *1219:B *1331:A1 5.33005e-05
31 *1219:B *436:8 0.000123126
32 *1220:B *436:8 8.00806e-05
33 *1332:B1 *1331:A1 0.000223886
34 *1457:CLK *436:38 9.56151e-05
35 *427:88 *1331:A1 0.000181374
36 *427:103 *436:8 1.01487e-05
37 *427:103 *436:23 0.000197467
38 *435:36 *1331:A1 1.38323e-05
*RES
1 *1452:Q *436:8 15.7464 
2 *436:8 *1331:A1 16.3893 
3 *436:8 *436:23 10.0179 
4 *436:23 *1569:A 9.3 
5 *436:23 *436:38 14.0536 
6 *436:38 *1217:B 33.1036 
7 *436:38 *1215:A 9.3 
*END

*D_NET *437 0.00927387
*CONN
*I *1330:A0 I *D sky130_fd_sc_hd__mux2_1
*I *1211:A I *D sky130_fd_sc_hd__nor2_2
*I *1209:A I *D sky130_fd_sc_hd__nor2_2
*I *1565:A I *D sky130_fd_sc_hd__dlygate4sd3_1
*I *1457:Q O *D sky130_fd_sc_hd__dfrtp_2
*CAP
1 *1330:A0 0.000195666
2 *1211:A 0
3 *1209:A 6.83479e-05
4 *1565:A 0.000951638
5 *1457:Q 0.000152695
6 *437:45 0.00124875
7 *437:14 0.00247591
8 *437:10 0.00069223
9 *1209:A *1094:A 0.000120645
10 *1330:A0 *1208:A 0.00029175
11 *1565:A *1212:A 4.12526e-05
12 *1565:A *443:10 5.18189e-05
13 *1565:A *443:21 8.93551e-05
14 *1565:A *530:96 0
15 *1565:A *585:30 1.00332e-05
16 *437:10 *1208:A 5.98502e-05
17 *437:10 *1458:RESET_B 0
18 *437:10 *1602:B 0.000139886
19 *437:10 *588:22 9.98998e-06
20 *437:14 *1208:A 9.71197e-05
21 *437:45 *1090:A 7.69167e-05
22 *437:45 *1091:B1 0.000170511
23 *437:45 *1209:B 0.000610082
24 *437:45 *1211:B 0.000137983
25 *437:45 *1212:A 0.000290644
26 *437:45 *438:32 2.96746e-05
27 *437:45 *463:45 0.000310236
28 *1208:B *437:10 5.98502e-05
29 *1210:B *1209:A 0.000175519
30 *1452:D *1565:A 0.000168325
31 *1453:CLK *1565:A 0
32 *1453:D *1565:A 0
33 *1455:D *1565:A 8.45518e-05
34 *1469:D *437:45 9.18347e-05
35 *1472:CLK *437:45 0.000129989
36 *1472:D *437:45 0.000103253
37 *142:14 *1209:A 2.82057e-05
38 *419:100 *437:45 2.30245e-05
39 *419:102 *437:45 8.6332e-05
40 *427:117 *1565:A 0
*RES
1 *1457:Q *437:10 22.0679 
2 *437:10 *437:14 8.32143 
3 *437:14 *1565:A 30.9786 
4 *437:14 *437:45 30.125 
5 *437:45 *1209:A 21.1571 
6 *437:45 *1211:A 9.3 
7 *437:10 *1330:A0 12.8536 
*END

*D_NET *438 0.00583679
*CONN
*I *1207:A I *D sky130_fd_sc_hd__nor2_2
*I *1209:B I *D sky130_fd_sc_hd__nor2_2
*I *1564:A I *D sky130_fd_sc_hd__dlygate4sd3_1
*I *1330:A1 I *D sky130_fd_sc_hd__mux2_1
*I *1458:Q O *D sky130_fd_sc_hd__dfrtp_2
*CAP
1 *1207:A 0.000201372
2 *1209:B 0.000902333
3 *1564:A 0
4 *1330:A1 0.000121976
5 *1458:Q 0.000199659
6 *438:32 0.00116546
7 *438:22 0.000542184
8 *1207:A *1207:B 7.84927e-05
9 *1209:B *1089:A 0
10 *1209:B *1091:B1 8.55022e-05
11 *1209:B *1094:A 4.07887e-05
12 *1209:B *1472:RESET_B 1.30413e-05
13 *1209:B *465:18 4.4938e-05
14 *1209:B *530:71 0
15 *1209:B *530:73 4.38511e-05
16 *1330:A1 *1208:A 0.0003689
17 *438:22 *530:96 0
18 *438:22 *588:22 0
19 *438:32 *1212:A 4.75715e-05
20 *438:32 *1472:RESET_B 0.000140768
21 *438:32 *530:96 8.35168e-05
22 *438:32 *588:22 0
23 *1094:B *1209:B 3.08664e-05
24 *1208:B *1207:A 0.00030899
25 *1208:B *438:22 3.79467e-05
26 *1210:B *1209:B 1.24368e-05
27 *1333:A3 *1330:A1 0.000122101
28 *1468:CLK *1209:B 9.98191e-05
29 *1471:D *1209:B 0.00013059
30 *140:8 *1209:B 0.000148189
31 *147:26 *1209:B 0.000132619
32 *419:72 *1209:B 9.31209e-05
33 *437:45 *1209:B 0.000610082
34 *437:45 *438:32 2.96746e-05
*RES
1 *1458:Q *1330:A1 22.4214 
2 *1458:Q *438:22 19.9429 
3 *438:22 *438:32 9.89286 
4 *438:32 *1564:A 13.8 
5 *438:32 *1209:B 34.8357 
6 *438:22 *1207:A 13.9607 
*END

*D_NET *439 0.00565746
*CONN
*I *1568:A I *D sky130_fd_sc_hd__dlygate4sd3_1
*I *1207:B I *D sky130_fd_sc_hd__nor2_2
*I *1205:A I *D sky130_fd_sc_hd__nor2_2
*I *1329:A2 I *D sky130_fd_sc_hd__mux4_2
*I *1460:Q O *D sky130_fd_sc_hd__dfrtp_2
*CAP
1 *1568:A 7.30984e-05
2 *1207:B 0.000149369
3 *1205:A 0.000472542
4 *1329:A2 0
5 *1460:Q 0.000639159
6 *439:32 0.000448978
7 *439:14 0.000774717
8 *439:8 0.00116785
9 *1205:A *1322:S0 0.000157934
10 *1205:A *1329:A0 0.000491429
11 *1207:B *1333:A1 0
12 *1568:A *1210:A 9.90367e-05
13 *1568:A *1553:A 0.000148911
14 *1568:A *588:22 5.0725e-05
15 *439:14 *1329:A0 7.73081e-05
16 *439:14 *588:22 3.84888e-05
17 *439:14 *589:33 0
18 *439:32 *1070:A 0
19 *439:32 *1553:A 0.00010326
20 *439:32 *588:22 0.000115676
21 *439:32 *589:33 0
22 *1095:A *1568:A 9.90367e-05
23 *1206:B *1205:A 5.62995e-05
24 *1207:A *1207:B 7.84927e-05
25 *1208:B *1207:B 2.90548e-05
26 *1460:D *439:8 5.52302e-05
27 *427:103 *439:8 7.71346e-06
28 *427:103 *439:14 3.75052e-05
29 *427:113 *439:14 0.000136744
30 *436:23 *439:14 0.000148903
*RES
1 *1460:Q *439:8 20.9071 
2 *439:8 *439:14 10.4286 
3 *439:14 *1329:A2 9.3 
4 *439:14 *1205:A 16.8536 
5 *439:8 *439:32 4.67857 
6 *439:32 *1207:B 16.4071 
7 *439:32 *1568:A 16.6929 
*END

*D_NET *440 0.00435627
*CONN
*I *1203:B I *D sky130_fd_sc_hd__nor2_2
*I *1205:B I *D sky130_fd_sc_hd__nor2_2
*I *1559:A I *D sky130_fd_sc_hd__dlygate4sd3_1
*I *1329:A3 I *D sky130_fd_sc_hd__mux4_2
*I *1462:Q O *D sky130_fd_sc_hd__dfrtp_2
*CAP
1 *1203:B 9.49933e-05
2 *1205:B 0
3 *1559:A 0.000321717
4 *1329:A3 0
5 *1462:Q 0.000345616
6 *440:26 0.000878734
7 *440:14 0.000600794
8 *440:10 0.000484386
9 *1203:B *1203:A 1.02504e-05
10 *1203:B *1206:A 5.49544e-05
11 *1203:B *1222:A 0.000107523
12 *1559:A *1208:A 5.52302e-05
13 *1559:A *1220:A 5.41864e-05
14 *1559:A *1329:S1 9.54798e-06
15 *1559:A *589:33 0.000540109
16 *1559:A *593:34 0
17 *440:10 *1222:A 0.000148903
18 *440:10 *1322:S0 0.000139913
19 *440:14 *1322:S0 8.46829e-05
20 *440:26 *1322:S0 5.52238e-05
21 *440:26 *1602:B 0
22 *440:26 *590:30 0
23 *440:26 *591:26 0.00011393
24 *1206:B *440:26 6.05161e-06
25 *1332:A2 *1203:B 7.85155e-05
26 *1332:A2 *440:10 2.4454e-05
27 *1332:A2 *440:26 1.94945e-05
28 *1332:B1 *1559:A 0
29 *1333:A3 *1559:A 1.92905e-05
30 *1462:D *440:10 0
31 *427:82 *440:10 0.000107769
*RES
1 *1462:Q *440:10 19.1571 
2 *440:10 *440:14 5.44643 
3 *440:14 *440:26 13.1884 
4 *440:26 *1329:A3 13.8 
5 *440:26 *1559:A 21.4429 
6 *440:14 *1205:B 9.3 
7 *440:10 *1203:B 16.5857 
*END

*D_NET *441 0.00535052
*CONN
*I *1231:A I *D sky130_fd_sc_hd__nor2_2
*I *1558:A I *D sky130_fd_sc_hd__dlygate4sd3_1
*I *1203:A I *D sky130_fd_sc_hd__nor2_2
*I *1324:A0 I *D sky130_fd_sc_hd__mux2_1
*I *1463:Q O *D sky130_fd_sc_hd__dfrtp_2
*CAP
1 *1231:A 5.17659e-05
2 *1558:A 0
3 *1203:A 0.000467227
4 *1324:A0 8.09474e-05
5 *1463:Q 5.6848e-05
6 *441:23 0.000732436
7 *441:21 0.000495489
8 *441:8 0.00031631
9 *1203:A *1206:A 0
10 *1203:A *1222:A 0.000309273
11 *1203:A *590:42 2.28499e-05
12 *1203:A *591:30 9.16487e-05
13 *1231:A *584:74 5.52302e-05
14 *1324:A0 *1204:A 0.00030987
15 *1324:A0 *1324:A1 0.000112806
16 *1324:A0 *1324:S 5.49489e-05
17 *441:21 *594:46 1.84531e-05
18 *1203:B *1203:A 1.02504e-05
19 *1223:A *441:8 0.000123288
20 *1223:A *441:21 0.000219599
21 *1323:B *441:8 6.09476e-05
22 *1323:B *441:21 0.000153156
23 *1325:A *1203:A 3.69047e-06
24 *1328:A1 *441:21 5.26224e-05
25 *1328:A1 *441:23 9.61156e-05
26 *1328:A2 *1203:A 7.94068e-05
27 *1328:A2 *441:23 0.000114587
28 *1332:A2 *1203:A 0.0001736
29 *1334:B1 *441:23 4.88637e-05
30 *1560:A *1203:A 0
31 *1567:A *1203:A 0.000181803
32 *1599:clk *441:21 0.000107617
33 *133:20 *1231:A 0.000136958
34 *133:20 *441:23 0.00052201
35 *179:18 *441:23 8.9904e-05
*RES
1 *1463:Q *441:8 15.4429 
2 *441:8 *1324:A0 16.8 
3 *441:8 *441:21 9.48214 
4 *441:21 *441:23 7.51786 
5 *441:23 *1203:A 37.4607 
6 *441:23 *1558:A 9.3 
7 *441:21 *1231:A 10.6571 
*END

*D_NET *442 0.00477148
*CONN
*I *1233:B I *D sky130_fd_sc_hd__nor2_2
*I *1231:B I *D sky130_fd_sc_hd__nor2_2
*I *1562:A I *D sky130_fd_sc_hd__dlygate4sd3_1
*I *1324:A1 I *D sky130_fd_sc_hd__mux2_1
*I *1456:Q O *D sky130_fd_sc_hd__dfrtp_2
*CAP
1 *1233:B 0.000446734
2 *1231:B 0.000164582
3 *1562:A 2.23854e-05
4 *1324:A1 0.000247207
5 *1456:Q 0
6 *442:10 0.00041279
7 *442:6 0.00107105
8 *442:4 0.00121
9 *1231:B *1129:B2 0
10 *1231:B *593:59 9.60337e-06
11 *1324:A1 *1204:A 3.63775e-05
12 *1324:A1 *1324:S 5.49489e-05
13 *442:6 *1204:A 3.97657e-05
14 *442:6 *585:46 1.20814e-05
15 *442:6 *585:69 2.82885e-05
16 *442:10 *1204:A 2.80449e-05
17 *1173:B *1233:B 6.20091e-06
18 *1232:B *1231:B 7.31875e-05
19 *1234:B *1233:B 0
20 *1292:A1 *1233:B 0.000126559
21 *1324:A0 *1324:A1 0.000112806
22 *1327:C *1231:B 0.000123589
23 *133:8 *1231:B 0.000127446
24 *179:18 *1231:B 0
25 *320:24 *1233:B 7.32955e-05
26 *320:24 *442:6 0.000232873
27 *426:176 *1233:B 7.23844e-05
28 *427:10 *1233:B 3.92854e-05
*RES
1 *1456:Q *442:4 9.3 
2 *442:4 *442:6 9.57143 
3 *442:6 *442:10 1.78571 
4 *442:10 *1324:A1 13.55 
5 *442:10 *1562:A 9.72857 
6 *442:6 *1231:B 22.3714 
7 *442:4 *1233:B 26.4607 
*END

*D_NET *443 0.0066761
*CONN
*I *1329:A0 I *D sky130_fd_sc_hd__mux4_2
*I *1215:B I *D sky130_fd_sc_hd__nor2_2
*I *1213:A I *D sky130_fd_sc_hd__nor2_2
*I *1218:A I *D sky130_fd_sc_hd__xnor2_2
*I *1453:Q O *D sky130_fd_sc_hd__dfstp_2
*CAP
1 *1329:A0 0.000701206
2 *1215:B 1.99857e-05
3 *1213:A 0.000189681
4 *1218:A 0
5 *1453:Q 0.000281662
6 *443:25 0.000759768
7 *443:21 0.00139657
8 *443:10 0.000426927
9 *1213:A *1211:B 1.76135e-05
10 *1213:A *444:47 0.000209237
11 *1329:A0 *1322:S0 2.29097e-05
12 *1329:A0 *1329:S0 9.20222e-05
13 *1329:A0 *1602:B 0.000125724
14 *1329:A0 *588:22 0.00012401
15 *1329:A0 *593:24 0.000181796
16 *443:10 *1453:SET_B 2.7601e-05
17 *443:10 *530:96 0.000314351
18 *443:21 *530:96 0.000336431
19 *1205:A *1329:A0 0.000491429
20 *1212:B *1213:A 0.000177234
21 *1214:B *1213:A 8.86354e-05
22 *1217:B *1213:A 0.00013205
23 *1452:D *443:10 7.35864e-05
24 *1452:D *443:21 1.0945e-05
25 *1457:CLK *443:25 6.61173e-05
26 *1565:A *443:10 5.18189e-05
27 *1565:A *443:21 8.93551e-05
28 *427:113 *1329:A0 9.58181e-05
29 *436:38 *1213:A 2.14658e-05
30 *436:38 *1215:B 1.04232e-05
31 *436:38 *1329:A0 1.96125e-05
32 *436:38 *443:25 4.28004e-05
33 *439:14 *1329:A0 7.73081e-05
*RES
1 *1453:Q *443:10 19.6393 
2 *443:10 *1218:A 13.8 
3 *443:10 *443:21 8.875 
4 *443:21 *443:25 6.71429 
5 *443:25 *1213:A 24.9429 
6 *443:25 *1215:B 9.72857 
7 *443:21 *1329:A0 32.9429 
*END

*D_NET *444 0.00764069
*CONN
*I *1211:B I *D sky130_fd_sc_hd__nor2_2
*I *1213:B I *D sky130_fd_sc_hd__nor2_2
*I *1329:A1 I *D sky130_fd_sc_hd__mux4_2
*I *1554:A I *D sky130_fd_sc_hd__dlygate4sd3_1
*I *1455:Q O *D sky130_fd_sc_hd__dfrtp_2
*CAP
1 *1211:B 0.000692596
2 *1213:B 0.000156249
3 *1329:A1 0.000481043
4 *1554:A 0.00130043
5 *1455:Q 0
6 *444:47 0.00119928
7 *444:4 0.00143104
8 *1211:B *1090:A 2.14658e-05
9 *1211:B *1091:A1 0
10 *1211:B *1093:A 8.49318e-05
11 *1211:B *1094:A 0.000765142
12 *1329:A1 *1460:RESET_B 5.3553e-05
13 *1329:A1 *588:22 7.83587e-05
14 *1554:A *1329:S0 4.58194e-05
15 *1212:B *1211:B 0.00014643
16 *1213:A *1211:B 1.76135e-05
17 *1213:A *444:47 0.000209237
18 *1217:A *1329:A1 1.32056e-05
19 *1217:B *444:47 0.000182799
20 *1219:B *1329:A1 1.46148e-05
21 *1331:A1 *1329:A1 2.12087e-05
22 *1332:B1 *1329:A1 0.000457457
23 *427:88 *1329:A1 1.74352e-05
24 *427:113 *1554:A 7.00615e-05
25 *435:36 *1329:A1 1.93106e-05
26 *436:23 *1329:A1 2.34204e-05
27 *437:45 *1211:B 0.000137983
*RES
1 *1455:Q *444:4 9.3 
2 *444:4 *1554:A 21.0857 
3 *444:4 *1329:A1 35.3357 
4 *1554:A *444:47 22.3714 
5 *444:47 *1213:B 15.9964 
6 *444:47 *1211:B 31.3 
*END

*D_NET *445 0.00534741
*CONN
*I *1175:A I *D sky130_fd_sc_hd__and3_2
*I *1184:A I *D sky130_fd_sc_hd__nor2_2
*I *1552:A I *D sky130_fd_sc_hd__dlygate4sd3_1
*I *1174:A I *D sky130_fd_sc_hd__and2_2
*I *1079:C I *D sky130_fd_sc_hd__or3_2
*I *1080:A2 I *D sky130_fd_sc_hd__o21ai_2
*I *1483:Q O *D sky130_fd_sc_hd__dfstp_2
*CAP
1 *1175:A 0.000137869
2 *1184:A 2.37855e-05
3 *1552:A 6.92337e-05
4 *1174:A 0.000355206
5 *1079:C 5.09115e-05
6 *1080:A2 0.000176912
7 *1483:Q 0
8 *445:64 0.000429506
9 *445:14 0.000320452
10 *445:12 0.00063564
11 *445:8 0.00043886
12 *445:6 0.000449672
13 *1080:A2 *1079:A 6.27131e-05
14 *1080:A2 *528:70 1.05731e-05
15 *1080:A2 *576:76 0.000124454
16 *1174:A *1097:A2 5.52302e-05
17 *1175:A *1184:B 0.000276211
18 *1552:A *1183:A 0.000151061
19 *445:8 *1483:SET_B 0
20 *445:8 *528:93 0
21 *445:12 *528:93 0
22 *445:14 *1079:A 5.52302e-05
23 *445:64 *1344:A 0
24 *445:64 *1483:SET_B 0
25 *445:64 *446:58 0.000266479
26 *1081:A *1174:A 5.04841e-06
27 *1081:B *1174:A 8.90314e-05
28 *1081:B *445:14 2.99132e-05
29 *1183:B *445:8 0.000121302
30 *1185:A2 *1175:A 5.52302e-05
31 *1346:C *1175:A 4.59075e-05
32 *1346:C *445:64 7.48091e-05
33 *138:8 *1174:A 3.57315e-05
34 *138:19 *1174:A 0.000132888
35 *157:49 *445:8 6.2589e-06
36 *164:22 *1552:A 0.000273866
37 *222:35 *445:8 9.71532e-05
38 *222:35 *445:64 0.000290264
39 *424:14 *1079:C 0
40 *424:14 *1552:A 0
41 *424:14 *445:12 0
*RES
1 *1483:Q *445:6 13.8 
2 *445:6 *445:8 3.76786 
3 *445:8 *445:12 7.35714 
4 *445:12 *445:14 1.35714 
5 *445:14 *1080:A2 12.3357 
6 *445:14 *1079:C 19.0321 
7 *445:12 *1174:A 15.2107 
8 *445:8 *1552:A 16.8179 
9 *445:6 *445:64 10.8571 
10 *445:64 *1184:A 9.72857 
11 *445:64 *1175:A 12.7107 
*END

*D_NET *446 0.0139635
*CONN
*I *1107:A I *D sky130_fd_sc_hd__or3_2
*I *1294:A I *D sky130_fd_sc_hd__and4_2
*I *1106:A1 I *D sky130_fd_sc_hd__o21ai_2
*I *1303:B1 I *D sky130_fd_sc_hd__a31o_2
*I *1536:A I *D sky130_fd_sc_hd__clkdlybuf4s25_1
*I *1493:Q O *D sky130_fd_sc_hd__dfrtp_2
*CAP
1 *1107:A 0.000146505
2 *1294:A 0.000135242
3 *1106:A1 0.000146505
4 *1303:B1 9.19768e-05
5 *1536:A 0.000276674
6 *1493:Q 0
7 *446:58 0.00207285
8 *446:31 0.0027784
9 *446:27 0.000994036
10 *446:4 0.000521894
11 *1107:A *1106:A2 0.000350554
12 *1107:A *1107:B 0.000172309
13 *1107:A *579:87 1.59373e-05
14 *1294:A *1407:A 5.33005e-05
15 *1303:B1 *450:40 2.14658e-05
16 *1303:B1 *450:50 3.18676e-05
17 *1536:A *1408:A 0.000101823
18 *1536:A *527:42 0
19 *1536:A *528:8 3.67257e-05
20 *1536:A *587:70 4.27437e-05
21 *446:27 *1408:B 0
22 *446:27 *525:24 0.000314772
23 *446:31 *1177:A 0.000100831
24 *446:31 *1303:A2 9.52287e-06
25 *446:31 *1406:B 0.000186119
26 *446:31 *1407:A 0.000140142
27 *446:31 *1408:B 0
28 *446:31 *450:74 0.000259705
29 *446:31 *525:24 0.000149436
30 *446:31 *590:115 3.67356e-05
31 *446:58 *1175:B 0
32 *446:58 *1176:A 0.00010096
33 *446:58 *1190:A 0.000279891
34 *446:58 *1341:A 0
35 *446:58 *1342:A 0.000218788
36 *446:58 *1486:RESET_B 0
37 *446:58 *1539:A 5.19231e-05
38 *446:58 *448:59 0
39 *446:58 *449:34 0.000131379
40 *446:58 *449:36 0.000198825
41 *446:58 *450:40 5.25774e-05
42 *446:58 *451:12 5.52302e-05
43 *446:58 *451:119 0.000131439
44 *446:58 *526:32 1.74903e-05
45 *446:58 *533:30 0
46 *446:58 *588:84 6.87412e-05
47 *1115:B1_N *1107:A 2.60984e-05
48 *1145:B *1294:A 6.62898e-05
49 *1185:A2 *446:58 9.25014e-06
50 *1189:A *446:58 5.33005e-05
51 *1189:B *446:58 0
52 *1194:B *1294:A 0
53 *1315:A2_N *446:31 9.17908e-05
54 *1345:C *446:58 2.1768e-05
55 *1485:D *446:58 0.000104818
56 *1486:D *446:58 0
57 *1489:D *1294:A 9.43546e-06
58 *1508:D *446:31 0.000149911
59 *1510:CLK *1536:A 3.10885e-05
60 *1510:CLK *446:27 0.000137774
61 *79:20 *1536:A 6.29133e-05
62 *79:34 *1536:A 0.000517439
63 *82:20 *1536:A 9.90367e-05
64 *83:28 *446:27 0.000140933
65 *155:6 *1107:A 0.000401663
66 *176:34 *446:31 4.43836e-05
67 *216:8 *446:58 0.000794337
68 *227:20 *1294:A 0.00010096
69 *417:6 *1294:A 0.000107996
70 *417:36 *1294:A 0.000230482
71 *445:64 *446:58 0.000266479
*RES
1 *1493:Q *446:4 9.3 
2 *446:4 *1536:A 26.3714 
3 *446:4 *446:27 10.2321 
4 *446:27 *446:31 17.375 
5 *446:31 *1303:B1 10.675 
6 *446:31 *446:58 49.125 
7 *446:58 *1106:A1 13.8 
8 *446:27 *1294:A 18.175 
9 *1106:A1 *1107:A 24.5107 
*END

*D_NET *447 0.00364936
*CONN
*I *1175:B I *D sky130_fd_sc_hd__and3_2
*I *1566:A I *D sky130_fd_sc_hd__dlygate4sd3_1
*I *1098:B I *D sky130_fd_sc_hd__or3_2
*I *1174:B I *D sky130_fd_sc_hd__and2_2
*I *1097:A2 I *D sky130_fd_sc_hd__o21a_2
*I *1484:Q O *D sky130_fd_sc_hd__dfstp_2
*CAP
1 *1175:B 0.000189856
2 *1566:A 2.3498e-05
3 *1098:B 7.30841e-05
4 *1174:B 0
5 *1097:A2 0.000365432
6 *1484:Q 3.94023e-05
7 *447:18 0.000519369
8 *447:12 0.000347487
9 *447:10 0.000277967
10 *447:8 0.000363263
11 *1097:A2 *528:93 0
12 *1175:B *1175:C 2.70899e-05
13 *1175:B *1184:B 1.21365e-05
14 *1175:B *572:49 0
15 *447:8 *1175:C 3.69047e-06
16 *447:8 *533:30 1.82657e-05
17 *1101:B1 *1175:B 4.18834e-05
18 *1101:B1 *447:10 0.000233521
19 *1169:A *447:18 0
20 *1169:B *447:12 9.67517e-05
21 *1169:B *447:18 8.6229e-06
22 *1174:A *1097:A2 5.52302e-05
23 *1185:A1 *1566:A 5.49489e-05
24 *1185:A2 *1175:B 0
25 *1185:A2 *447:10 0
26 *1185:A2 *447:12 0
27 *1186:B *1566:A 5.33005e-05
28 *1346:C *1175:B 4.1331e-06
29 *138:19 *1097:A2 4.03934e-05
30 *138:19 *447:18 9.83388e-05
31 *148:25 *447:10 8.6229e-06
32 *148:25 *447:12 0.00013176
33 *164:22 *1098:B 9.58126e-05
34 *211:16 *1566:A 9.83388e-05
35 *214:12 *1097:A2 0
36 *214:12 *447:12 0.000198947
37 *214:12 *447:18 7.40526e-05
38 *418:88 *447:8 9.41642e-05
39 *446:58 *1175:B 0
*RES
1 *1484:Q *447:8 14.7464 
2 *447:8 *447:10 3.16071 
3 *447:10 *447:12 3.16071 
4 *447:12 *447:18 7.39286 
5 *447:18 *1097:A2 23.175 
6 *447:18 *1174:B 9.3 
7 *447:12 *1098:B 14.7464 
8 *447:10 *1566:A 14.7464 
9 *447:8 *1175:B 16.6571 
*END

*D_NET *448 0.00631027
*CONN
*I *1102:A2 I *D sky130_fd_sc_hd__o21ai_2
*I *1103:B I *D sky130_fd_sc_hd__or3_2
*I *1341:A I *D sky130_fd_sc_hd__xor2_2
*I *1186:A I *D sky130_fd_sc_hd__nor2_2
*I *1175:C I *D sky130_fd_sc_hd__and3_2
*I *1485:Q O *D sky130_fd_sc_hd__dfstp_2
*CAP
1 *1102:A2 0
2 *1103:B 0.000156219
3 *1341:A 0.00048812
4 *1186:A 1.59182e-05
5 *1175:C 0.000275402
6 *1485:Q 0.000236378
7 *448:59 0.000406998
8 *448:12 0.000355559
9 *448:10 0.000843589
10 *448:6 0.000778387
11 *1103:B *1102:A1 2.06178e-05
12 *1103:B *1102:B1 0.000121991
13 *1103:B *1103:A 0.000113056
14 *1175:C *1184:B 0.000215413
15 *1175:C *533:30 0.000389974
16 *448:10 *533:30 0.00022834
17 *448:12 *533:30 0.000166036
18 *448:59 *1102:B1 1.02504e-05
19 *448:59 *449:10 0.000126439
20 *448:59 *579:87 0
21 *1101:A2 *1175:C 0.00018077
22 *1101:B1 *1175:C 0.000136031
23 *1101:B1 *448:10 0
24 *1104:A *448:59 1.00375e-05
25 *1115:A1 *448:59 4.14439e-05
26 *1116:B1 *448:59 2.74273e-05
27 *1175:B *1175:C 2.70899e-05
28 *1186:B *1186:A 5.71263e-05
29 *1186:B *448:12 2.59355e-05
30 *1188:B *1341:A 2.82057e-05
31 *1189:A *1186:A 5.71263e-05
32 *1189:B *1341:A 0.000304998
33 *1346:B *1341:A 0
34 *1485:CLK *1175:C 3.69047e-06
35 *1485:CLK *448:10 5.20751e-05
36 *1485:CLK *448:12 3.2687e-05
37 *1486:D *1341:A 0.000197127
38 *157:12 *448:59 0
39 *387:12 *1341:A 9.94037e-05
40 *418:88 *1175:C 2.14973e-05
41 *420:37 *1103:B 5.52238e-05
42 *446:58 *1341:A 0
43 *446:58 *448:59 0
44 *447:8 *1175:C 3.69047e-06
*RES
1 *1485:Q *448:6 12.7107 
2 *448:6 *448:10 6.30357 
3 *448:10 *448:12 1.76786 
4 *448:12 *1175:C 25.3179 
5 *448:12 *1186:A 19.0321 
6 *448:10 *1341:A 28.4429 
7 *448:6 *448:59 9.17857 
8 *448:59 *1103:B 16.8179 
9 *448:59 *1102:A2 13.8 
*END

*D_NET *449 0.00494003
*CONN
*I *1339:A I *D sky130_fd_sc_hd__nand2_2
*I *1188:A I *D sky130_fd_sc_hd__nor2_2
*I *1340:A I *D sky130_fd_sc_hd__or2_2
*I *1176:A I *D sky130_fd_sc_hd__and2_2
*I *1107:B I *D sky130_fd_sc_hd__or3_2
*I *1106:A2 I *D sky130_fd_sc_hd__o21ai_2
*I *1486:Q O *D sky130_fd_sc_hd__dfrtp_2
*CAP
1 *1339:A 2.37855e-05
2 *1188:A 4.73634e-05
3 *1340:A 0
4 *1176:A 3.9533e-05
5 *1107:B 0.000122711
6 *1106:A2 0.000298257
7 *1486:Q 0
8 *449:51 0.000201363
9 *449:36 0.000260963
10 *449:34 0.000517583
11 *449:10 0.000561213
12 *449:6 0.000566611
13 *1106:A2 *579:87 6.45178e-05
14 *1176:A *1539:A 1.74352e-05
15 *1188:A *1339:B 0.000140933
16 *449:10 *1485:SET_B 5.36379e-05
17 *449:10 *533:30 0
18 *449:34 *1485:SET_B 9.58022e-05
19 *449:34 *1486:RESET_B 0.000175519
20 *449:34 *1539:A 0.000145
21 *449:34 *1594:A 5.5474e-05
22 *449:34 *571:53 3.10819e-05
23 *449:36 *1539:A 1.39726e-05
24 *449:51 *1339:B 2.6809e-05
25 *449:51 *492:12 9.25014e-06
26 *1107:A *1106:A2 0.000350554
27 *1107:A *1107:B 0.000172309
28 *1108:A *449:10 5.44363e-05
29 *1176:B *1176:A 3.89749e-05
30 *1176:B *449:36 2.59355e-05
31 *1188:B *449:36 9.16173e-05
32 *1345:A *1188:A 2.44318e-05
33 *1345:B *1188:A 9.90431e-05
34 *1346:C *449:51 0
35 *1390:B *449:34 3.69047e-06
36 *1485:D *449:10 0
37 *215:24 *449:51 5.26224e-05
38 *446:58 *1176:A 0.00010096
39 *446:58 *449:34 0.000131379
40 *446:58 *449:36 0.000198825
41 *448:59 *449:10 0.000126439
*RES
1 *1486:Q *449:6 13.8 
2 *449:6 *449:10 7.96429 
3 *449:10 *1106:A2 14.2821 
4 *449:10 *1107:B 11.0679 
5 *449:6 *449:34 14.7679 
6 *449:34 *449:36 2.58929 
7 *449:36 *1176:A 10.675 
8 *449:36 *449:51 11.25 
9 *449:51 *1340:A 9.3 
10 *449:51 *1188:A 11.0857 
11 *449:34 *1339:A 9.72857 
*END

*D_NET *450 0.00666513
*CONN
*I *1177:A I *D sky130_fd_sc_hd__and3_2
*I *1191:A1 I *D sky130_fd_sc_hd__a21oi_2
*I *1111:A2 I *D sky130_fd_sc_hd__o21a_2
*I *1112:B I *D sky130_fd_sc_hd__nor3_2
*I *1190:A I *D sky130_fd_sc_hd__xor2_2
*I *1344:A I *D sky130_fd_sc_hd__xor2_2
*I *1487:Q O *D sky130_fd_sc_hd__dfrtp_2
*CAP
1 *1177:A 3.58489e-05
2 *1191:A1 0.000343334
3 *1111:A2 0.000113304
4 *1112:B 2.04425e-05
5 *1190:A 0.000248535
6 *1344:A 0.000375953
7 *1487:Q 0.000168402
8 *450:74 0.000512139
9 *450:50 0.000641317
10 *450:40 0.000681512
11 *1111:A2 *1111:A1 6.35053e-05
12 *1111:A2 *1111:B1 4.89167e-05
13 *1111:A2 *522:32 7.36162e-05
14 *1111:A2 *576:76 5.71472e-05
15 *1112:B *1112:C 5.33005e-05
16 *1112:B *522:32 2.59355e-05
17 *1177:A *590:115 9.22948e-05
18 *1190:A *526:32 0.000404707
19 *1191:A1 *451:18 0.000153637
20 *1344:A *1344:B 3.51442e-05
21 *1344:A *1487:RESET_B 5.33334e-05
22 *1344:A *533:32 6.05161e-06
23 *1344:A *533:54 8.47011e-05
24 *450:40 *526:32 7.24613e-05
25 *450:50 *1111:A1 2.09775e-05
26 *450:50 *1112:C 4.2268e-05
27 *450:50 *1303:A2 8.97225e-05
28 *450:50 *451:48 6.03191e-05
29 *450:50 *522:18 8.97349e-05
30 *450:50 *522:32 2.78576e-05
31 *450:50 *526:32 2.59355e-05
32 *450:50 *527:66 0
33 *450:50 *528:70 0.000172924
34 *450:74 *1177:B 3.4323e-06
35 *450:74 *1298:B1 0.000145241
36 *450:74 *1303:A2 5.37664e-05
37 *450:74 *451:24 6.21521e-06
38 *450:74 *590:115 4.28365e-05
39 *1114:A *1111:A2 1.08175e-05
40 *1114:A *450:50 8.06816e-05
41 *1118:B1 *450:50 0
42 *1123:A *450:50 0.000119778
43 *1171:C *450:50 0.000153056
44 *1303:B1 *450:40 2.14658e-05
45 *1303:B1 *450:50 3.18676e-05
46 *1304:C *450:50 0.000170301
47 *1315:A2_N *1191:A1 0.000181374
48 *222:33 *1344:A 0
49 *222:35 *1344:A 0
50 *304:8 *450:50 1.92905e-05
51 *418:79 *1344:A 3.67257e-05
52 *445:64 *1344:A 0
53 *446:31 *1177:A 0.000100831
54 *446:31 *450:74 0.000259705
55 *446:58 *1190:A 0.000279891
56 *446:58 *450:40 5.25774e-05
*RES
1 *1487:Q *1344:A 31.4036 
2 *1344:A *1190:A 25.4393 
3 *1190:A *450:40 10.6571 
4 *450:40 *450:50 21.6964 
5 *450:50 *1112:B 9.83571 
6 *450:50 *1111:A2 21.0857 
7 *450:40 *450:74 7.96429 
8 *450:74 *1191:A1 18.8893 
9 *450:74 *1177:A 15.1393 
*END

*D_NET *451 0.0111601
*CONN
*I *1342:A I *D sky130_fd_sc_hd__nand2_2
*I *1343:A I *D sky130_fd_sc_hd__or2_2
*I *1191:B1 I *D sky130_fd_sc_hd__a21oi_2
*I *1298:A1 I *D sky130_fd_sc_hd__a211oi_2
*I *1177:B I *D sky130_fd_sc_hd__and3_2
*I *1303:A1 I *D sky130_fd_sc_hd__a31o_2
*I *1297:A1 I *D sky130_fd_sc_hd__a21oi_2
*I *1119:B I *D sky130_fd_sc_hd__or2_2
*I *1120:B I *D sky130_fd_sc_hd__or3b_2
*I *1488:Q O *D sky130_fd_sc_hd__dfstp_2
*CAP
1 *1342:A 4.9163e-05
2 *1343:A 1.72883e-05
3 *1191:B1 0
4 *1298:A1 0
5 *1177:B 0.000252951
6 *1303:A1 0
7 *1297:A1 0
8 *1119:B 0
9 *1120:B 0.000368048
10 *1488:Q 0
11 *451:119 8.51501e-05
12 *451:60 0.000694421
13 *451:48 0.00108939
14 *451:24 0.000892688
15 *451:20 0.000382619
16 *451:18 0.000244469
17 *451:12 0.000535928
18 *451:4 0.000310159
19 *1120:B *1120:A 6.05161e-06
20 *1120:B *1120:C_N 3.52966e-05
21 *1120:B *1158:A2 6.25878e-05
22 *1120:B *1307:A 6.87975e-06
23 *1177:B *527:50 5.93879e-05
24 *1177:B *533:54 6.67203e-05
25 *1177:B *590:115 0.000192671
26 *1342:A *1342:B 0.000125392
27 *1342:A *1539:A 1.64583e-05
28 *1343:A *1342:B 1.00733e-05
29 *451:12 *1488:SET_B 7.56541e-05
30 *451:12 *1539:A 1.21289e-05
31 *451:12 *494:14 7.43578e-06
32 *451:18 *1298:B1 9.71197e-05
33 *451:18 *525:24 0.000113811
34 *451:18 *525:30 1.98839e-05
35 *451:24 *1298:B1 6.75856e-05
36 *451:24 *1303:A2 4.81646e-05
37 *451:24 *525:30 9.15621e-06
38 *451:24 *527:50 1.30572e-05
39 *451:48 *1303:A2 4.88588e-05
40 *451:48 *1304:A 0.00011802
41 *451:48 *525:45 0.000112431
42 *451:48 *527:60 2.09413e-05
43 *451:48 *527:66 0.000105924
44 *451:48 *527:90 0.000699963
45 *451:48 *583:67 0.000120909
46 *451:60 *1306:B 0
47 *451:60 *527:94 0
48 *451:119 *1342:B 4.88637e-05
49 *451:119 *494:14 3.18676e-05
50 *1121:B *1120:B 4.28249e-05
51 *1158:B1 *1120:B 1.90936e-05
52 *1171:C *451:48 0.000430808
53 *1171:C *451:60 5.71472e-05
54 *1191:A1 *451:18 0.000153637
55 *1192:A2 *451:12 0.000195105
56 *1192:A2 *451:18 1.55885e-05
57 *1304:B *451:48 1.4045e-05
58 *1306:A *451:60 0.000207722
59 *1307:B *451:60 0
60 *1307:C *1120:B 9.54798e-06
61 *1307:C *451:60 0.000194355
62 *1310:D *451:48 2.18537e-05
63 *1315:A1_N *451:48 5.75933e-05
64 *1315:A2_N *451:18 0.00030987
65 *1345:D *1342:A 2.44318e-05
66 *1508:D *1177:B 3.69047e-06
67 *166:10 *1120:B 5.54204e-05
68 *166:10 *451:60 2.26824e-05
69 *166:14 *1120:B 0.000127274
70 *169:8 *1120:B 0
71 *176:24 *451:48 0.000414424
72 *187:12 *1177:B 4.46186e-06
73 *211:48 *451:24 0.000195291
74 *216:8 *451:12 0.000442448
75 *216:8 *451:18 0.000148105
76 *298:8 *451:60 5.53719e-05
77 *310:8 *451:48 6.12326e-06
78 *320:50 *451:48 0.00010096
79 *320:50 *451:60 7.9208e-05
80 *446:58 *1342:A 0.000218788
81 *446:58 *451:12 5.52302e-05
82 *446:58 *451:119 0.000131439
83 *450:50 *451:48 6.03191e-05
84 *450:74 *1177:B 3.4323e-06
85 *450:74 *451:24 6.21521e-06
*RES
1 *1488:Q *451:4 9.3 
2 *451:4 *451:12 9.73214 
3 *451:12 *451:18 7.66071 
4 *451:18 *451:20 4.5 
5 *451:20 *451:24 7.96429 
6 *451:24 *451:48 32.9053 
7 *451:48 *451:60 11.625 
8 *451:60 *1120:B 19.8 
9 *451:60 *1119:B 13.8 
10 *451:48 *1297:A1 9.3 
11 *451:24 *1303:A1 9.3 
12 *451:20 *1177:B 19.3893 
13 *451:18 *1298:A1 9.3 
14 *451:12 *1191:B1 9.3 
15 *451:4 *451:119 1.35714 
16 *451:119 *1343:A 9.72857 
17 *451:119 *1342:A 11.9071 
*END

*D_NET *452 0.0034183
*CONN
*I *1193:A I *D sky130_fd_sc_hd__nor2_2
*I *1178:A I *D sky130_fd_sc_hd__and2_2
*I *1152:B I *D sky130_fd_sc_hd__xor2_2
*I *1489:Q O *D sky130_fd_sc_hd__dfrtp_2
*CAP
1 *1193:A 0.000179597
2 *1178:A 0.000497994
3 *1152:B 0.000271869
4 *1489:Q 0.000590266
5 *1152:B *1489:RESET_B 0.000102207
6 *1178:A *1489:RESET_B 5.74499e-06
7 *1178:A *1575:A 4.51691e-05
8 *1193:A *1489:RESET_B 0.000147926
9 *1193:A *1491:SET_B 7.53309e-05
10 *1193:A *512:28 0.000316184
11 *1193:B *1193:A 0.000316184
12 *1194:A *1178:A 0.00026503
13 *1198:A1 *1178:A 0.000136238
14 *1348:B *1193:A 1.33343e-05
15 *1512:D *1193:A 0
16 *80:56 *1193:A 0.000169322
17 *218:37 *1178:A 5.83304e-05
18 *418:34 *1178:A 0.000137427
19 *418:51 *1178:A 9.0145e-05
*RES
1 *1489:Q *1152:B 11.4339 
2 *1489:Q *1178:A 36.3143 
3 *1152:B *1193:A 24.6304 
*END

*D_NET *453 0.0109523
*CONN
*I *1149:B I *D sky130_fd_sc_hd__xor2_2
*I *1197:A1 I *D sky130_fd_sc_hd__a21oi_2
*I *1195:A I *D sky130_fd_sc_hd__or2_2
*I *1180:A I *D sky130_fd_sc_hd__and3_2
*I *1179:A I *D sky130_fd_sc_hd__nand2_2
*I *1490:Q O *D sky130_fd_sc_hd__dfstp_2
*CAP
1 *1149:B 0.000291292
2 *1197:A1 2.23854e-05
3 *1195:A 4.04633e-05
4 *1180:A 0.000157891
5 *1179:A 0.000357548
6 *1490:Q 0
7 *453:59 0.00050338
8 *453:26 0.000762748
9 *453:16 0.00161446
10 *453:4 0.00151639
11 *1149:B *1140:A 0.000150108
12 *1149:B *1410:A 0.000135028
13 *1149:B *1556:A 0
14 *1149:B *587:90 0.000142793
15 *1179:A *533:85 4.50149e-05
16 *453:16 *1492:RESET_B 0
17 *453:16 *533:111 0
18 *453:16 *535:67 0
19 *453:16 *535:69 0.00140074
20 *453:59 *1410:A 0.000137983
21 uo_out[0] *453:16 0.000103254
22 uo_out[2] *453:16 4.42631e-05
23 uo_out[2] *453:26 4.31572e-05
24 *1179:B *1179:A 0.000706334
25 *1194:A *453:16 5.33978e-05
26 *1195:B *1179:A 3.34366e-05
27 *1195:B *1195:A 5.49544e-05
28 *1195:B *453:26 0.000312323
29 *1196:B2 *1179:A 7.24753e-05
30 *1199:B *1179:A 0
31 *1199:B *1180:A 0.000228514
32 *1200:A *1195:A 0.000137561
33 *1200:B *1179:A 9.91086e-05
34 *1200:B *453:26 0.000182022
35 *1445:CLK *1179:A 9.23759e-05
36 *1445:GATE *1179:A 0
37 *1491:D *1149:B 0.000171368
38 *1492:D *453:26 5.47001e-05
39 *1497:D *1179:A 1.08359e-05
40 *1498:D *1179:A 1.32552e-05
41 *80:56 *1149:B 6.26276e-05
42 *80:56 *453:59 0.000201626
43 *182:10 *1149:B 9.17232e-05
44 *191:10 *1149:B 0
45 *218:37 *453:16 9.74588e-05
46 *218:41 *1180:A 0.000523176
47 *220:12 *453:16 0
48 *426:16 *1149:B 0.000227175
49 *426:22 *1195:A 4.10843e-05
50 *426:22 *453:26 1.5872e-05
*RES
1 *1490:Q *453:4 9.3 
2 *453:4 *453:16 34.3036 
3 *453:16 *453:26 14.3571 
4 *453:26 *1179:A 23.3179 
5 *453:26 *1180:A 18.8536 
6 *453:16 *1195:A 15.1571 
7 *453:4 *453:59 3.82143 
8 *453:59 *1197:A1 9.72857 
9 *453:59 *1149:B 18.2232 
*END

*D_NET *454 0.00525387
*CONN
*I *1144:B I *D sky130_fd_sc_hd__xor2_2
*I *1556:A I *D sky130_fd_sc_hd__dlygate4sd3_1
*I *1180:B I *D sky130_fd_sc_hd__and3_2
*I *1491:Q O *D sky130_fd_sc_hd__dfstp_2
*CAP
1 *1144:B 0.000136698
2 *1556:A 0.000167319
3 *1180:B 0.00125798
4 *1491:Q 0
5 *454:6 0.00178371
6 *454:4 0.000495112
7 *1144:B *1140:A 0.000122921
8 *1144:B *1149:A 0.00012401
9 *1144:B *587:90 0
10 *1180:B *455:8 0.00021529
11 *1180:B *587:90 5.33334e-05
12 *1556:A *587:90 2.28578e-05
13 *454:6 *534:22 5.52302e-05
14 *454:6 *587:90 0.000255204
15 *1149:B *1556:A 0
16 *1178:B *1180:B 5.99995e-05
17 *1193:B *1556:A 3.25247e-05
18 *1491:D *1180:B 4.87953e-05
19 *1492:D *1180:B 0.000166416
20 *191:10 *1144:B 0
21 *191:10 *1556:A 0
22 *217:27 *1556:A 7.10813e-05
23 *218:8 *1180:B 1.13406e-05
24 *218:37 *1180:B 3.47797e-05
25 *220:12 *1180:B 1.63458e-05
26 *426:16 *1144:B 0.000122921
*RES
1 *1491:Q *454:4 9.3 
2 *454:4 *454:6 5.05357 
3 *454:6 *1180:B 25.0321 
4 *454:6 *1556:A 21.7643 
5 *454:4 *1144:B 13.0625 
*END

*D_NET *455 0.00603742
*CONN
*I *1140:B I *D sky130_fd_sc_hd__xor2_2
*I *1181:A I *D sky130_fd_sc_hd__and2_2
*I *1199:A I *D sky130_fd_sc_hd__nor2_2
*I *1492:Q O *D sky130_fd_sc_hd__dfrtp_2
*CAP
1 *1140:B 0.000124974
2 *1181:A 0
3 *1199:A 0.00103656
4 *1492:Q 0.000150484
5 *455:43 0.000239812
6 *455:8 0.00130188
7 *1140:B *1140:A 2.39551e-05
8 *1199:A *1201:A 6.76043e-05
9 *1199:A *1492:RESET_B 5.01213e-05
10 uo_out[3] *1199:A 3.30237e-05
11 *1180:B *455:8 0.00021529
12 *1196:B1 *1199:A 7.83587e-05
13 *1198:A1 *1140:B 0.00040279
14 *1199:B *1199:A 0.000259052
15 *1200:B *1199:A 0.00019483
16 *1201:B *1199:A 2.84026e-05
17 *1495:CLK *1199:A 5.71472e-05
18 *80:56 *1199:A 0.000927227
19 *218:37 *1199:A 0
20 *218:37 *455:43 0
21 *220:12 *1199:A 4.35131e-05
22 *220:12 *455:8 3.32631e-05
23 *220:12 *455:43 8.359e-05
24 *221:10 *1140:B 4.43256e-05
25 *221:25 *1199:A 5.59013e-05
26 *221:29 *1199:A 1.21309e-05
27 *426:16 *1140:B 0.000573176
*RES
1 *1492:Q *455:8 17.6214 
2 *455:8 *1199:A 44.7286 
3 *455:8 *455:43 6.75 
4 *455:43 *1181:A 9.3 
5 *455:43 *1140:B 5.83036 
*END

*D_NET *456 0.000427473
*CONN
*I *1447:D I *D sky130_fd_sc_hd__dfxtp_2
*I *1135:Y O *D sky130_fd_sc_hd__inv_2
*CAP
1 *1447:D 6.19216e-05
2 *1135:Y 6.19216e-05
3 *1234:B *1447:D 0.000102545
4 *1360:A_N *1447:D 8.42801e-05
5 *426:176 *1447:D 0.000116805
*RES
1 *1135:Y *1447:D 29.7473 
*END

*D_NET *457 0.00755072
*CONN
*I *1524:A I *D sky130_fd_sc_hd__buf_2
*I *1548:A I *D sky130_fd_sc_hd__dlygate4sd3_1
*I *1447:Q O *D sky130_fd_sc_hd__dfxtp_2
*CAP
1 *1524:A 6.13407e-05
2 *1548:A 0.00206953
3 *1447:Q 0.000197074
4 *457:42 0.0019338
5 *1548:A *589:146 0.000122812
6 *457:42 *1150:A 0.000467367
7 *457:42 *1173:A 0.00022266
8 *457:42 *1430:A 0
9 *457:42 *468:24 0
10 *457:42 *472:25 1.63058e-05
11 *457:42 *472:39 0.000240697
12 *457:42 *526:93 0.000383145
13 *457:42 *526:108 0
14 *457:42 *528:30 0.000103178
15 uio_out[0] *1524:A 5.33005e-05
16 uo_out[7] *457:42 5.7248e-05
17 *1130:A_N *457:42 4.45768e-06
18 *1264:A *457:42 8.0732e-05
19 *1271:A2 *457:42 0.000123295
20 *1272:A2 *457:42 0.000195555
21 *1272:B1 *457:42 1.91418e-05
22 *1292:A2 *1548:A 0.0001399
23 *1358:B *457:42 1.38323e-05
24 *1359:B1 *457:42 0
25 *1360:A_N *1548:A 1.39841e-05
26 *1360:C *457:42 9.93501e-05
27 *1360:D *457:42 6.7543e-05
28 *1440:A1 *457:42 0
29 *1440:A2 *457:42 4.28759e-05
30 *1494:CLK *457:42 2.99773e-05
31 *125:87 *457:42 1.94879e-05
32 *194:90 *457:42 0
33 *209:16 *457:42 0.000419373
34 *213:26 *1548:A 3.71847e-05
35 *265:10 *457:42 3.52971e-05
36 *273:10 *457:42 5.59013e-05
37 *276:10 *457:42 0.000128154
38 *282:12 *457:42 2.8046e-05
39 *419:217 *1524:A 6.81704e-05
40 *419:217 *457:42 0
*RES
1 *1447:Q *1548:A 31.0107 
2 *1548:A *457:42 49.6571 
3 *457:42 *1524:A 15.1571 
*END

*D_NET *458 0.00289478
*CONN
*I *1522:A I *D sky130_fd_sc_hd__buf_2
*I *1242:X O *D sky130_fd_sc_hd__a22o_2
*CAP
1 *1522:A 0.000732408
2 *1242:X 0.000732408
3 *1522:A *1066:A 5.57927e-05
4 *1522:A *1465:RESET_B 0
5 *1522:A *459:12 0
6 *1522:A *461:16 4.57538e-05
7 *1522:A *530:18 0
8 *1522:A *586:30 0.000255583
9 *1522:A *586:47 1.39737e-05
10 *1522:A *587:18 1.01912e-05
11 *1522:A *587:31 8.64853e-05
12 *1522:A *590:83 0
13 uio_oe[6] *1522:A 1.09232e-05
14 uio_out[7] *1522:A 5.33334e-05
15 *1236:B1 *1522:A 0
16 *1237:B1 *1522:A 0
17 *1242:A2 *1522:A 2.7505e-05
18 *1475:CLK *1522:A 0.000144015
19 *1475:D *1522:A 0
20 *126:12 *1522:A 0.000125724
21 *419:41 *1522:A 0.000366675
22 *419:50 *1522:A 0.00023401
*RES
1 *1242:X *1522:A 45.8857 
*END

*D_NET *459 0.00396344
*CONN
*I *1551:A I *D sky130_fd_sc_hd__dlygate4sd3_1
*I *1084:A1 I *D sky130_fd_sc_hd__a21oi_2
*I *1083:A I *D sky130_fd_sc_hd__and3_2
*I *1465:Q O *D sky130_fd_sc_hd__dfrtp_2
*CAP
1 *1551:A 0
2 *1084:A1 0
3 *1083:A 0.000246049
4 *1465:Q 0.000448786
5 *459:16 0.000364249
6 *459:12 0.000566986
7 *1083:A *1083:B 0.000284063
8 *1083:A *1083:C 0.000544294
9 *1083:A *1091:B1 0.000144587
10 *1083:A *1571:A 0.000273103
11 *459:12 *1465:RESET_B 5.53289e-05
12 *459:12 *461:16 9.90431e-05
13 *459:12 *461:29 0.000295932
14 *459:12 *462:10 0
15 *459:12 *530:18 3.47737e-05
16 *459:12 *545:18 0
17 *459:16 *1083:B 3.99614e-06
18 *459:16 *1083:C 0.000147189
19 *459:16 *461:29 0.00010096
20 *1237:C1 *459:12 0.000354105
21 *1522:A *459:12 0
*RES
1 *1465:Q *459:12 28.6214 
2 *459:12 *459:16 3.01786 
3 *459:16 *1083:A 18.5143 
4 *459:16 *1084:A1 9.3 
5 *459:12 *1551:A 9.3 
*END

*D_NET *460 0.00473183
*CONN
*I *1236:A1 I *D sky130_fd_sc_hd__a22o_2
*I *1084:A2 I *D sky130_fd_sc_hd__a21oi_2
*I *1083:B I *D sky130_fd_sc_hd__and3_2
*I *1555:A I *D sky130_fd_sc_hd__dlygate4sd3_1
*I *1466:Q O *D sky130_fd_sc_hd__dfrtp_2
*CAP
1 *1236:A1 0
2 *1084:A2 0
3 *1083:B 0.000508368
4 *1555:A 0.000401478
5 *1466:Q 0.00031548
6 *460:40 0.00118917
7 *460:28 0.000766797
8 *1083:B *1091:B1 5.33005e-05
9 *1555:A *1082:B 0.000292395
10 *1555:A *590:83 2.89114e-05
11 *460:28 *461:16 0.000120707
12 *460:40 *1083:C 0.000104702
13 *460:40 *1469:RESET_B 7.6644e-05
14 *460:40 *461:16 5.97496e-05
15 *460:40 *461:29 0.000131651
16 *460:40 *545:18 0.00014183
17 uio_oe[6] *1555:A 2.59093e-05
18 *1083:A *1083:B 0.000284063
19 *1236:A2 *1555:A 6.40917e-05
20 *1236:A2 *460:28 0.000134554
21 *1255:A *1555:A 0
22 *1473:D *1555:A 2.80292e-05
23 *1475:D *1555:A 0
24 *459:16 *1083:B 3.99614e-06
*RES
1 *1466:Q *1555:A 34.2607 
2 *1555:A *460:28 12.0321 
3 *460:28 *460:40 18.1071 
4 *460:40 *1083:B 16.4429 
5 *460:40 *1084:A2 9.3 
6 *460:28 *1236:A1 9.3 
*END

*D_NET *461 0.00393319
*CONN
*I *1236:B2 I *D sky130_fd_sc_hd__a22o_2
*I *1084:B1 I *D sky130_fd_sc_hd__a21oi_2
*I *1083:C I *D sky130_fd_sc_hd__and3_2
*I *1237:A1 I *D sky130_fd_sc_hd__o221a_2
*I *1467:Q O *D sky130_fd_sc_hd__dfrtp_2
*CAP
1 *1236:B2 0
2 *1084:B1 0
3 *1083:C 0.000366355
4 *1237:A1 0.000101934
5 *1467:Q 0.000170016
6 *461:29 0.000447593
7 *461:16 0.000353187
8 *1083:C *1571:A 0.000180777
9 *1237:A1 *462:10 5.7234e-05
10 *461:29 *545:18 0.000139907
11 *1083:A *1083:C 0.000544294
12 *1085:B *1083:C 0.00018077
13 *1236:A2 *1237:A1 0
14 *1236:A2 *461:16 3.046e-05
15 *1236:B1 *1237:A1 5.97719e-05
16 *1237:B1 *1237:A1 3.34295e-05
17 *1237:C1 *461:16 0.000161769
18 *1522:A *461:16 4.57538e-05
19 *459:12 *461:16 9.90431e-05
20 *459:12 *461:29 0.000295932
21 *459:16 *1083:C 0.000147189
22 *459:16 *461:29 0.00010096
23 *460:28 *461:16 0.000120707
24 *460:40 *1083:C 0.000104702
25 *460:40 *461:16 5.97496e-05
26 *460:40 *461:29 0.000131651
*RES
1 *1467:Q *461:16 23.4964 
2 *461:16 *1237:A1 20.55 
3 *461:16 *461:29 3.82143 
4 *461:29 *1083:C 18.6036 
5 *461:29 *1084:B1 9.3 
6 *461:16 *1236:B2 9.3 
*END

*D_NET *462 0.00418408
*CONN
*I *1086:A I *D sky130_fd_sc_hd__and2_2
*I *1087:A I *D sky130_fd_sc_hd__nor2_2
*I *1237:B2 I *D sky130_fd_sc_hd__o221a_2
*I *1238:A1 I *D sky130_fd_sc_hd__a221o_2
*I *1468:Q O *D sky130_fd_sc_hd__dfrtp_2
*CAP
1 *1086:A 0
2 *1087:A 0.000117663
3 *1237:B2 0
4 *1238:A1 0.000222639
5 *1468:Q 0.000863805
6 *462:47 0.000440451
7 *462:10 0.000763656
8 *462:10 *530:47 8.44478e-05
9 *462:10 *545:18 0.000168939
10 *462:47 *1062:A 4.70078e-05
11 *1085:A *462:47 0.000230482
12 *1085:B *462:47 0.000175374
13 *1087:B *1087:A 0.000214342
14 *1088:B *462:47 2.28499e-05
15 *1237:A1 *462:10 5.7234e-05
16 *1237:B1 *1238:A1 0
17 *1237:B1 *462:10 0
18 *1237:C1 *462:10 5.07157e-05
19 *1238:B1 *1238:A1 2.89114e-05
20 *1238:C1 *1238:A1 0.000149419
21 *1239:C1 *1238:A1 0.00010096
22 *1240:C1 *1238:A1 2.30116e-06
23 *1467:D *462:47 0.000271345
24 *1468:D *462:47 1.02132e-05
25 *140:8 *1087:A 1.02504e-05
26 *419:64 *462:47 5.01117e-05
27 *419:72 *462:10 0.00010096
28 *459:12 *462:10 0
*RES
1 *1468:Q *462:10 22.8179 
2 *462:10 *1238:A1 18.2643 
3 *462:10 *1237:B2 13.8 
4 *1468:Q *462:47 26.3536 
5 *462:47 *1087:A 21.1571 
6 *462:47 *1086:A 9.3 
*END

*D_NET *463 0.00592172
*CONN
*I *1571:A I *D sky130_fd_sc_hd__dlygate4sd3_1
*I *1091:A1 I *D sky130_fd_sc_hd__a21oi_2
*I *1090:A I *D sky130_fd_sc_hd__and3_2
*I *1238:B2 I *D sky130_fd_sc_hd__a221o_2
*I *1239:A1 I *D sky130_fd_sc_hd__o221a_2
*I *1469:Q O *D sky130_fd_sc_hd__dfrtp_2
*CAP
1 *1571:A 0.000219034
2 *1091:A1 1.90495e-05
3 *1090:A 0.000284067
4 *1238:B2 6.57875e-05
5 *1239:A1 0
6 *1469:Q 0.0011419
7 *463:49 0.000443271
8 *463:45 0.00121542
9 *463:12 0.000351452
10 *1090:A *1094:A 0.000371526
11 *1571:A *1091:B1 2.05823e-05
12 *463:12 *1239:B2 4.6025e-06
13 *1083:A *1571:A 0.000273103
14 *1083:C *1571:A 0.000180777
15 *1091:A2 *1090:A 5.20751e-05
16 *1211:B *1090:A 2.14658e-05
17 *1211:B *1091:A1 0
18 *1212:B *1090:A 0.000371526
19 *1238:B1 *1238:B2 0.000155094
20 *1238:C1 *463:12 3.15645e-05
21 *1239:C1 *1238:B2 0.000181947
22 *1240:C1 *463:12 5.48376e-05
23 *1470:D *463:45 7.54868e-05
24 *437:45 *1090:A 7.69167e-05
25 *437:45 *463:45 0.000310236
*RES
1 *1469:Q *463:12 22.425 
2 *463:12 *1239:A1 9.3 
3 *463:12 *1238:B2 12.1795 
4 *1469:Q *463:45 28.9071 
5 *463:45 *463:49 1.78571 
6 *463:49 *1090:A 26.4071 
7 *463:49 *1091:A1 9.72857 
8 *463:45 *1571:A 13.9786 
*END

*D_NET *464 0.00513077
*CONN
*I *1091:B1 I *D sky130_fd_sc_hd__a21oi_2
*I *1090:B I *D sky130_fd_sc_hd__and3_2
*I *1239:B2 I *D sky130_fd_sc_hd__o221a_2
*I *1240:A1 I *D sky130_fd_sc_hd__a221o_2
*I *1470:Q O *D sky130_fd_sc_hd__dfrtp_2
*CAP
1 *1091:B1 0.000274973
2 *1090:B 0.000467312
3 *1239:B2 8.61816e-05
4 *1240:A1 0.000199113
5 *1470:Q 0.000710773
6 *464:37 0.00108597
7 *464:8 0.000652381
8 *1240:A1 *1240:B2 5.6671e-05
9 *1240:A1 *1241:A1 4.43256e-05
10 *1240:A1 *465:48 6.99304e-05
11 *464:8 *1069:A 2.89016e-05
12 *1083:A *1091:B1 0.000144587
13 *1083:B *1091:B1 5.33005e-05
14 *1090:C *1090:B 1.40415e-05
15 *1093:B *1090:B 3.83493e-06
16 *1209:B *1091:B1 8.55022e-05
17 *1239:B1 *1239:B2 1.75989e-05
18 *1239:B1 *1240:A1 4.80553e-05
19 *1239:C1 *464:8 0.000183298
20 *1240:C1 *1239:B2 1.14672e-05
21 *1240:C1 *1240:A1 2.87041e-05
22 *1470:CLK *1090:B 0.000210168
23 *1471:D *1240:A1 5.52302e-05
24 *1571:A *1091:B1 2.05823e-05
25 *128:6 *464:8 2.77289e-05
26 *140:8 *1091:B1 9.25014e-06
27 *144:29 *1090:B 8.47289e-06
28 *419:89 *1091:B1 0.000211854
29 *419:100 *1091:B1 0.000145444
30 *437:45 *1091:B1 0.000170511
31 *463:12 *1239:B2 4.6025e-06
*RES
1 *1470:Q *464:8 18.4429 
2 *464:8 *1240:A1 18.1393 
3 *464:8 *1239:B2 15.0679 
4 *1470:Q *464:37 13.1214 
5 *464:37 *1090:B 15.175 
6 *464:37 *1091:B1 25.5857 
*END

*D_NET *465 0.0076721
*CONN
*I *1241:A1 I *D sky130_fd_sc_hd__o221a_2
*I *1240:B2 I *D sky130_fd_sc_hd__a221o_2
*I *1094:A I *D sky130_fd_sc_hd__or2_2
*I *1093:A I *D sky130_fd_sc_hd__nand2_2
*I *1471:Q O *D sky130_fd_sc_hd__dfrtp_2
*CAP
1 *1241:A1 0.000184434
2 *1240:B2 2.62067e-05
3 *1094:A 0.000616534
4 *1093:A 0.000118019
5 *1471:Q 0
6 *465:48 0.000455213
7 *465:18 0.0016068
8 *465:4 0.00111682
9 *465:18 *1210:A 4.29615e-05
10 *465:18 *1472:RESET_B 0.000100474
11 *465:18 *1553:A 0.000253571
12 *465:48 *1553:A 5.52238e-05
13 *1090:A *1094:A 0.000371526
14 *1093:B *1093:A 3.63587e-05
15 *1093:B *465:18 9.41642e-05
16 *1094:B *1094:A 5.65955e-05
17 *1095:A *465:18 0.000481532
18 *1096:B *465:18 5.45307e-05
19 *1209:A *1094:A 0.000120645
20 *1209:B *1094:A 4.07887e-05
21 *1209:B *465:18 4.4938e-05
22 *1210:B *1094:A 2.32672e-05
23 *1211:B *1093:A 8.49318e-05
24 *1211:B *1094:A 0.000765142
25 *1212:B *1093:A 4.35131e-05
26 *1212:B *1094:A 0.000167992
27 *1240:A1 *1240:B2 5.6671e-05
28 *1240:A1 *1241:A1 4.43256e-05
29 *1240:A1 *465:48 6.99304e-05
30 *1240:A2 *1241:A1 2.54936e-05
31 *1240:B1 *1241:A1 0.000306073
32 *1242:B1 *1241:A1 6.05161e-06
33 *1333:A2 *1241:A1 9.52387e-05
34 *1471:D *465:18 9.25014e-06
35 *1471:D *465:48 8.57572e-06
36 *130:32 *1241:A1 9.25014e-06
37 *142:14 *1094:A 0
38 *147:26 *1094:A 1.6936e-05
39 *147:26 *465:48 6.2127e-05
*RES
1 *1471:Q *465:4 9.3 
2 *465:4 *465:18 28.6607 
3 *465:18 *1093:A 16.6214 
4 *465:18 *1094:A 30.2107 
5 *465:4 *465:48 4.66071 
6 *465:48 *1240:B2 10.2598 
7 *465:48 *1241:A1 23.0321 
*END

*D_NET *466 0.00552175
*CONN
*I *1235:A I *D sky130_fd_sc_hd__or2_2
*I *1241:B2 I *D sky130_fd_sc_hd__o221a_2
*I *1553:A I *D sky130_fd_sc_hd__dlygate4sd3_1
*I *1472:Q O *D sky130_fd_sc_hd__dfrtp_2
*CAP
1 *1235:A 0.000160386
2 *1241:B2 0
3 *1553:A 0.000701105
4 *1472:Q 0
5 *466:25 0.000717887
6 *466:4 0.00125861
7 *1235:A *1073:A 0.000193745
8 *1553:A *1070:A 8.82396e-05
9 *1553:A *588:22 1.05524e-05
10 *466:25 *1070:A 0
11 *466:25 *1333:A1 7.38085e-05
12 *1095:A *1553:A 0.000170519
13 *1132:A *466:25 0.000171884
14 *1208:B *466:25 0.000227117
15 *1241:A2 *1235:A 5.33005e-05
16 *1241:B1 *1235:A 0.000111835
17 *1241:C1 *1235:A 0.000301438
18 *1242:B1 *1235:A 0.000121418
19 *1242:B2 *1235:A 5.33005e-05
20 *1333:A2 *466:25 1.76649e-05
21 *1333:A3 *466:25 8.6229e-06
22 *1333:B1 *466:25 9.55323e-06
23 *1471:CLK *1553:A 7.57312e-05
24 *1471:D *1553:A 0.000255565
25 *1568:A *1553:A 0.000148911
26 *132:12 *1235:A 3.85955e-05
27 *147:26 *1553:A 0.000139907
28 *439:32 *1553:A 0.00010326
29 *465:18 *1553:A 0.000253571
30 *465:48 *1553:A 5.52238e-05
*RES
1 *1472:Q *466:4 9.3 
2 *466:4 *1553:A 35.1036 
3 *466:4 *466:25 17.1071 
4 *466:25 *1241:B2 9.3 
5 *466:25 *1235:A 23.8536 
*END

*D_NET *467 0.00851958
*CONN
*I *1436:A1 I *D sky130_fd_sc_hd__a22o_2
*I *1246:B1 I *D sky130_fd_sc_hd__a21o_2
*I *1247:A I *D sky130_fd_sc_hd__nand3_2
*I *1547:A I *D sky130_fd_sc_hd__dlygate4sd3_1
*I *1433:A1_N I *D sky130_fd_sc_hd__a2bb2o_2
*I *1473:Q O *D sky130_fd_sc_hd__dfxtp_2
*CAP
1 *1436:A1 0.000939427
2 *1246:B1 0.000262437
3 *1247:A 2.62031e-05
4 *1547:A 9.97168e-05
5 *1433:A1_N 0.000441197
6 *1473:Q 2.23854e-05
7 *467:53 0.00126894
8 *467:42 0.000493618
9 *467:10 0.000602026
10 *467:6 0.00048384
11 *1246:B1 *1537:A 0.000178457
12 *1246:B1 *535:73 1.02504e-05
13 *1433:A1_N *1433:B2 5.33005e-05
14 *1433:A1_N *469:8 6.85604e-05
15 *1433:A1_N *469:14 0.000123136
16 *1433:A1_N *476:10 0.000191908
17 *1436:A1 *475:14 0
18 *1436:A1 *531:16 1.50563e-05
19 *1547:A *469:8 6.41337e-05
20 *467:42 *1537:A 6.94952e-05
21 *467:53 *1537:A 2.14757e-05
22 uio_oe[2] *1436:A1 6.6833e-05
23 uio_oe[3] *1436:A1 0
24 uio_oe[6] *1433:A1_N 0
25 uio_out[7] *1246:B1 0.000242659
26 *1236:A2 *1433:A1_N 0
27 *1243:B *467:42 0.000174663
28 *1247:C *1246:B1 0.00027218
29 *1250:A *1436:A1 0.000120682
30 *1250:B *467:42 6.05161e-06
31 *1252:A *1246:B1 1.85844e-05
32 *1253:A1 *1246:B1 7.80714e-06
33 *1253:A1 *1436:A1 0
34 *1253:A2 *467:42 0.000176234
35 *1255:A *1433:A1_N 0
36 *1255:A *467:10 0.000140933
37 *1255:A *467:42 0.000482607
38 *1259:A *1436:A1 0.000175519
39 *1260:B1 *1436:A1 0
40 *1289:A1 *1436:A1 0.000175678
41 *1290:A1 *1436:A1 9.74333e-05
42 *1432:B1 *1436:A1 6.39808e-05
43 *1433:B1 *1433:A1_N 9.69186e-05
44 *1436:A2 *1436:A1 7.61963e-05
45 *1436:B1 *1436:A1 6.05161e-06
46 *1438:C1 *1433:A1_N 0.000105612
47 *1442:A *1436:A1 2.01483e-05
48 *1446:GATE *1436:A1 0
49 *1475:D *1433:A1_N 5.80217e-05
50 *1475:D *1547:A 6.22404e-05
51 *125:50 *1436:A1 2.17666e-05
52 *125:87 *1436:A1 0.000129515
53 *130:93 *1436:A1 0
54 *255:20 *1247:A 0
55 *255:24 *467:53 9.90367e-05
56 *415:22 *1436:A1 0.000186669
57 *419:25 *1436:A1 0
58 *419:176 *1436:A1 0
*RES
1 *1473:Q *467:6 9.72857 
2 *467:6 *467:10 5.85714 
3 *467:10 *1433:A1_N 24.2107 
4 *467:10 *1547:A 16.3536 
5 *467:6 *467:42 18.0714 
6 *467:42 *1247:A 9.72857 
7 *467:42 *467:53 5.85714 
8 *467:53 *1246:B1 21.1929 
9 *467:53 *1436:A1 32.6929 
*END

*D_NET *468 0.00644583
*CONN
*I *1245:A I *D sky130_fd_sc_hd__or2_2
*I *1244:A I *D sky130_fd_sc_hd__nand2_2
*I *1431:A I *D sky130_fd_sc_hd__or2_2
*I *1430:A I *D sky130_fd_sc_hd__nand2_2
*I *1474:Q O *D sky130_fd_sc_hd__dfxtp_2
*CAP
1 *1245:A 0.000255111
2 *1244:A 3.03969e-05
3 *1431:A 0
4 *1430:A 0.000267407
5 *1474:Q 0.000108503
6 *468:24 0.00140838
7 *468:10 0.00124543
8 *468:8 0.000437675
9 *1244:A *526:139 5.03772e-05
10 *1245:A *1245:B 1.03169e-05
11 *1245:A *579:40 0
12 *1430:A *1430:B 4.80788e-05
13 *1430:A *586:47 2.8266e-06
14 *1430:A *586:49 6.8646e-06
15 *468:24 *1268:A 0.000171368
16 *468:24 *526:139 0.00052642
17 *468:24 *531:31 2.49484e-05
18 *468:24 *579:40 7.49387e-06
19 *468:24 *579:56 0.000142617
20 *468:24 *586:47 0.000190452
21 uio_out[4] *1245:A 4.19624e-06
22 uio_out[5] *1245:A 1.28443e-05
23 *1257:A_N *468:10 4.46186e-06
24 *1257:A_N *468:24 4.02462e-05
25 *1266:A2 *468:10 0
26 *1273:C *468:24 0.000192262
27 *1360:C *1430:A 1.08359e-05
28 *1440:A1 *1430:A 0.000121242
29 *1440:A2 *1430:A 7.4102e-05
30 *1440:B1 *1430:A 0.000186437
31 *1477:D *1245:A 0
32 *194:90 *468:24 4.52492e-05
33 *255:12 *1245:A 2.24646e-05
34 *255:12 *468:8 9.90367e-05
35 *255:12 *468:10 0.000114759
36 *255:12 *468:24 3.34295e-05
37 *256:10 *1245:A 5.33005e-05
38 *265:10 *468:24 0
39 *269:17 *1244:A 9.41642e-05
40 *273:10 *468:24 0.000347174
41 *419:200 *1245:A 5.49489e-05
42 *457:42 *1430:A 0
43 *457:42 *468:24 0
*RES
1 *1474:Q *468:8 15.1571 
2 *468:8 *468:10 1.64286 
3 *468:10 *468:24 28.7857 
4 *468:24 *1430:A 19.3179 
5 *468:24 *1431:A 13.8 
6 *468:10 *1244:A 14.7464 
7 *468:8 *1245:A 18.4607 
*END

*D_NET *469 0.002015
*CONN
*I *1251:A I *D sky130_fd_sc_hd__xnor2_2
*I *1063:A I *D sky130_fd_sc_hd__inv_2
*I *1433:B2 I *D sky130_fd_sc_hd__a2bb2o_2
*I *1475:Q O *D sky130_fd_sc_hd__dfxtp_2
*CAP
1 *1251:A 0
2 *1063:A 0
3 *1433:B2 6.73618e-05
4 *1475:Q 0.000317938
5 *469:14 0.000281223
6 *469:8 0.0005318
7 *469:8 *1593:A 5.01876e-06
8 uio_oe[5] *469:8 0.000170099
9 uio_oe[5] *469:14 0.000106844
10 *1255:B *469:8 0
11 *1433:A1_N *1433:B2 5.33005e-05
12 *1433:A1_N *469:8 6.85604e-05
13 *1433:A1_N *469:14 0.000123136
14 *1433:B1 *1433:B2 5.33005e-05
15 *1475:D *469:8 0
16 *1482:D *469:14 0.000168598
17 *1547:A *469:8 6.41337e-05
18 *122:6 *469:14 3.69047e-06
*RES
1 *1475:Q *469:8 20.6036 
2 *469:8 *469:14 10.0179 
3 *469:14 *1433:B2 10.6571 
4 *469:14 *1063:A 9.3 
5 *469:8 *1251:A 13.8 
*END

*D_NET *470 0.00450315
*CONN
*I *1257:B I *D sky130_fd_sc_hd__nand2b_2
*I *1258:A I *D sky130_fd_sc_hd__xnor2_2
*I *1429:A I *D sky130_fd_sc_hd__or2_2
*I *1428:A I *D sky130_fd_sc_hd__nand2_2
*I *1476:Q O *D sky130_fd_sc_hd__dfxtp_2
*CAP
1 *1257:B 0.00014575
2 *1258:A 0
3 *1429:A 0.000213521
4 *1428:A 7.77889e-05
5 *1476:Q 4.36033e-05
6 *470:38 0.000214558
7 *470:10 0.000595368
8 *470:8 0.00041647
9 *1257:B *531:31 0
10 *1257:B *590:99 5.33334e-05
11 *1428:A *1428:B 0.00011069
12 *1428:A *588:43 5.76705e-05
13 *1428:A *593:104 0.000189914
14 *1429:A *474:14 4.38267e-05
15 *1429:A *593:104 5.33005e-05
16 *470:10 *475:32 0
17 *470:10 *531:31 0.000344533
18 *470:10 *588:43 4.00349e-05
19 *470:10 *593:104 2.09413e-05
20 *470:38 *531:31 4.38621e-05
21 *470:38 *590:99 0.000102207
22 *1257:A_N *1257:B 5.85498e-05
23 *1265:A2 *1257:B 2.22043e-05
24 *1266:B1 *1257:B 0
25 *1266:B1 *470:38 0
26 *1280:B *470:10 6.08174e-05
27 *1282:B1 *1429:A 5.49489e-05
28 *1441:B2 *1429:A 0.00049724
29 *1481:D *470:10 4.87725e-05
30 *124:39 *1429:A 0.00014742
31 *134:12 *1428:A 1.24381e-05
32 *134:12 *470:10 5.01448e-05
33 *134:52 *470:10 1.39158e-05
34 *267:6 *1257:B 8.76257e-05
35 *267:6 *470:8 5.33005e-05
36 *267:6 *470:38 0.000186669
37 *285:6 *1429:A 0.000441731
*RES
1 *1476:Q *470:8 14.3357 
2 *470:8 *470:10 6.80357 
3 *470:10 *1428:A 16.3536 
4 *470:10 *1429:A 22.2821 
5 *470:8 *470:38 7 
6 *470:38 *1258:A 9.3 
7 *470:38 *1257:B 21.8 
*END

*D_NET *471 0.00343268
*CONN
*I *1263:A I *D sky130_fd_sc_hd__nor2_2
*I *1262:A I *D sky130_fd_sc_hd__and2_2
*I *1434:A I *D sky130_fd_sc_hd__nand2_2
*I *1435:A I *D sky130_fd_sc_hd__or2_2
*I *1477:Q O *D sky130_fd_sc_hd__dfxtp_2
*CAP
1 *1263:A 0
2 *1262:A 0
3 *1434:A 6.61554e-06
4 *1435:A 7.8147e-05
5 *1477:Q 0.000178415
6 *471:22 0.000542703
7 *471:16 0.000543685
8 *471:10 0.00026416
9 *1435:A *1434:B 0.000180566
10 *1435:A *1435:B 2.51721e-05
11 *471:10 *579:40 0
12 *471:16 *579:40 0
13 *471:22 *1172:B 5.41794e-05
14 *471:22 *1274:B 9.91086e-05
15 *471:22 *473:28 0
16 *471:22 *475:32 0
17 *471:22 *526:139 0.000259009
18 *471:22 *579:56 9.84498e-05
19 uio_out[2] *471:10 0
20 uio_out[3] *471:10 7.83659e-05
21 *1263:B *471:10 1.02504e-05
22 *1263:B *471:16 3.80445e-05
23 *1264:B *471:16 0.000127446
24 *1264:B *471:22 0.000214519
25 *1266:A3 *471:16 0.000115474
26 *1266:A3 *471:22 3.51442e-05
27 *1267:A *471:16 1.08359e-05
28 *1275:B *471:22 0
29 *1276:A *471:22 4.15914e-05
30 *1276:B *1434:A 5.71472e-05
31 *1276:B *1435:A 5.92245e-05
32 *1276:B *471:22 0
33 *1440:B2 *1434:A 2.44318e-05
34 *1440:B2 *1435:A 9.90431e-05
35 *1477:D *471:10 0
36 *259:23 *471:22 5.7061e-05
37 *272:10 *471:22 0.000123295
38 *419:217 *471:10 1.05947e-05
*RES
1 *1477:Q *471:10 16.6929 
2 *471:10 *471:16 2.91071 
3 *471:16 *471:22 14.875 
4 *471:22 *1435:A 12.2821 
5 *471:22 *1434:A 9.83571 
6 *471:16 *1262:A 13.8 
7 *471:10 *1263:A 13.8 
*END

*D_NET *472 0.0115508
*CONN
*I *1269:A I *D sky130_fd_sc_hd__nand2_2
*I *1268:A I *D sky130_fd_sc_hd__and3_2
*I *1437:A1_N I *D sky130_fd_sc_hd__a2bb2o_2
*I *1436:B2 I *D sky130_fd_sc_hd__a22o_2
*I *1270:A I *D sky130_fd_sc_hd__or2_2
*I *1478:Q O *D sky130_fd_sc_hd__dfxtp_2
*CAP
1 *1269:A 0
2 *1268:A 9.33832e-05
3 *1437:A1_N 3.64642e-05
4 *1436:B2 0.000140793
5 *1270:A 0.000271573
6 *1478:Q 0.000799204
7 *472:51 0.00203906
8 *472:39 0.00233569
9 *472:25 0.000679922
10 *472:6 0.00137019
11 *1268:A *473:12 5.33005e-05
12 *472:25 *1279:B 2.94103e-05
13 *472:25 *590:99 2.89016e-05
14 *472:39 *526:108 4.58194e-05
15 *472:39 *590:99 4.87953e-05
16 *472:51 *1283:B 2.36643e-05
17 *472:51 *1439:A2 0
18 *472:51 *475:14 2.00997e-05
19 *472:51 *526:108 4.13496e-05
20 *472:51 *526:112 6.87574e-05
21 *472:51 *526:116 0.000139907
22 *1243:B *472:51 0.000212284
23 *1249:A_N *472:51 1.15172e-05
24 *1272:A1 *1270:A 5.33005e-05
25 *1272:A1 *472:6 8.60796e-06
26 *1272:A2 *1270:A 0.000125176
27 *1272:A2 *472:6 2.28598e-05
28 *1272:B1 *472:25 0.000171375
29 *1272:C1 *1270:A 1.3701e-05
30 *1273:C *472:25 2.44318e-05
31 *1273:C *472:39 4.87953e-05
32 *1274:C *1268:A 5.52302e-05
33 *1284:B *472:51 0.000165816
34 *1288:B *472:51 6.05161e-06
35 *1289:A2 *472:51 0
36 *1290:A3 *472:51 1.36976e-05
37 *1291:A *472:51 5.88913e-05
38 *1437:B1 *1437:A1_N 4.7488e-05
39 *1442:A *1436:B2 2.89016e-05
40 *1442:B *1436:B2 7.29712e-05
41 *1443:B *472:51 5.40449e-05
42 *1446:GATE *1436:B2 0.000209083
43 *1446:GATE *472:51 5.51376e-05
44 *1478:D *472:6 4.87669e-06
45 *1479:CLK *472:25 0
46 *1481:CLK *472:51 0.000143756
47 *1481:D *472:51 9.75534e-05
48 *1494:CLK *472:25 0.000106552
49 *1494:CLK *472:39 0.000171729
50 *174:20 *1436:B2 2.45502e-05
51 *194:68 *472:39 5.44305e-05
52 *194:90 *1268:A 0.000168939
53 *259:48 *472:51 0.00035406
54 *259:50 *472:51 7.35819e-05
55 *279:8 *472:25 0
56 *282:12 *472:39 5.83304e-05
57 *288:12 *472:51 2.89016e-05
58 *291:8 *472:51 9.60875e-05
59 *419:35 *472:51 1.34548e-05
60 *419:217 *472:25 0
61 *457:42 *472:25 1.63058e-05
62 *457:42 *472:39 0.000240697
63 *468:24 *1268:A 0.000171368
*RES
1 *1478:Q *472:6 18.4607 
2 *472:6 *1270:A 13.7643 
3 *472:6 *472:25 15.4286 
4 *472:25 *472:39 16.7679 
5 *472:39 *472:51 33.5 
6 *472:51 *1436:B2 17.1929 
7 *472:51 *1437:A1_N 14.7911 
8 *472:39 *1268:A 21.0857 
9 *472:25 *1269:A 9.3 
*END

*D_NET *473 0.0124302
*CONN
*I *1274:A I *D sky130_fd_sc_hd__and3_2
*I *1275:A I *D sky130_fd_sc_hd__nor2_2
*I *1064:A I *D sky130_fd_sc_hd__inv_2
*I *1439:B2 I *D sky130_fd_sc_hd__a221o_2
*I *1479:Q O *D sky130_fd_sc_hd__dfxtp_2
*CAP
1 *1274:A 0
2 *1275:A 2.23854e-05
3 *1064:A 0
4 *1439:B2 0.000266564
5 *1479:Q 0.000945985
6 *473:28 0.00167468
7 *473:14 0.00150903
8 *473:12 0.00102451
9 *1275:A *531:40 0
10 *1439:B2 *591:41 9.25014e-06
11 *1439:B2 *591:52 0.000146061
12 *1439:B2 *591:65 8.6229e-06
13 *473:28 *1172:B 0
14 *473:28 *1434:B 0
15 *473:28 *475:32 0.000125724
16 *473:28 *575:30 0.000347236
17 *473:28 *586:47 5.72652e-05
18 *473:28 *588:26 0.00154857
19 *473:28 *588:43 0.000982077
20 *473:28 *588:84 0.000383339
21 *473:28 *589:146 2.11419e-05
22 *473:28 *591:65 0.000171257
23 *1128:B *1439:B2 0.00012117
24 *1268:A *473:12 5.33005e-05
25 *1274:C *473:12 0.000277581
26 *1276:B *473:28 0.000102545
27 *1279:A_N *473:12 1.04232e-05
28 *1279:C *473:12 7.86112e-05
29 *1334:A1 *1439:B2 3.34672e-05
30 *1432:B1 *473:28 5.36313e-05
31 *1437:B1 *1439:B2 1.37644e-05
32 *1437:B1 *473:28 3.91913e-05
33 *1441:A1 *473:28 7.69776e-06
34 *1441:B2 *473:28 0
35 *1479:CLK *473:12 5.70961e-05
36 *1479:D *473:12 0.000173823
37 *79:34 *473:12 0.000218236
38 *125:12 *473:28 7.33213e-05
39 *125:16 *473:28 5.31531e-05
40 *125:50 *473:28 0.0011717
41 *134:52 *473:28 9.77021e-06
42 *275:14 *473:12 9.22103e-06
43 *280:30 *473:12 0.000185643
44 *280:30 *473:14 9.77274e-05
45 *280:30 *473:28 2.89114e-05
46 *284:12 *473:12 5.22047e-05
47 *284:24 *473:12 0.000264284
48 *471:22 *473:28 0
*RES
1 *1479:Q *473:12 25.9071 
2 *473:12 *473:14 1.76786 
3 *473:14 *473:28 21.3186 
4 *473:28 *1439:B2 19.3045 
5 *473:28 *1064:A 13.8 
6 *473:14 *1275:A 9.72857 
7 *473:12 *1274:A 9.3 
*END

*D_NET *474 0.0033848
*CONN
*I *1286:C1 I *D sky130_fd_sc_hd__o211ai_2
*I *1065:A I *D sky130_fd_sc_hd__inv_2
*I *1437:B2 I *D sky130_fd_sc_hd__a2bb2o_2
*I *1480:Q O *D sky130_fd_sc_hd__dfxtp_2
*CAP
1 *1286:C1 0.000205692
2 *1065:A 0
3 *1437:B2 9.0982e-05
4 *1480:Q 0.000181354
5 *474:14 0.000698145
6 *474:8 0.000994209
7 *474:8 *593:104 0
8 *1280:A *1286:C1 5.72705e-05
9 *1280:A *474:8 2.39654e-05
10 *1285:A1 *1286:C1 0
11 *1285:A1 *474:8 0
12 *1285:B1_N *1286:C1 9.90367e-05
13 *1286:A2 *1286:C1 6.05161e-06
14 *1287:B *1286:C1 0.000271345
15 *1287:C *1286:C1 4.72487e-05
16 *1429:A *474:14 4.38267e-05
17 *1432:B1 *1437:B2 3.04394e-05
18 *1432:B1 *474:14 2.94709e-06
19 *1437:B1 *1437:B2 5.71472e-05
20 *1441:B2 *474:14 0.000529582
21 *124:39 *474:14 4.55532e-05
22 *124:52 *474:8 0
*RES
1 *1480:Q *474:8 16.3536 
2 *474:8 *474:14 13.1607 
3 *474:14 *1437:B2 11.0679 
4 *474:14 *1065:A 9.3 
5 *474:8 *1286:C1 18.6393 
*END

*D_NET *475 0.00474527
*CONN
*I *1427:A I *D sky130_fd_sc_hd__or2_2
*I *1426:A I *D sky130_fd_sc_hd__nand2_2
*I *1284:A I *D sky130_fd_sc_hd__xnor2_2
*I *1283:B I *D sky130_fd_sc_hd__nand2b_2
*I *1481:Q O *D sky130_fd_sc_hd__dfxtp_2
*CAP
1 *1427:A 0
2 *1426:A 6.9681e-05
3 *1284:A 0
4 *1283:B 2.80806e-05
5 *1481:Q 3.72435e-05
6 *475:32 0.000330992
7 *475:14 0.000841011
8 *475:6 0.00111148
9 *1426:A *1172:B 0.00014285
10 *1426:A *1427:B 0.000149282
11 *475:14 *587:70 0.000109554
12 *475:32 *1172:B 3.93986e-05
13 *1266:B1 *475:32 9.56249e-05
14 *1275:B *475:32 1.83249e-05
15 *1284:B *475:6 4.27935e-05
16 *1284:B *475:14 0.00105296
17 *1436:A1 *475:14 0
18 *1441:A1 *1426:A 3.03304e-05
19 *1441:B2 *1426:A 5.52238e-05
20 *1481:D *475:32 0
21 *134:12 *475:32 0
22 *259:48 *1283:B 0.000143375
23 *419:25 *475:14 1.90936e-05
24 *419:35 *1283:B 0.000185118
25 *419:35 *475:14 6.37711e-05
26 *419:176 *475:14 9.58189e-06
27 *470:10 *475:32 0
28 *471:22 *475:32 0
29 *472:51 *1283:B 2.36643e-05
30 *472:51 *475:14 2.00997e-05
31 *473:28 *475:32 0.000125724
*RES
1 *1481:Q *475:6 9.83571 
2 *475:6 *475:14 20.9464 
3 *475:14 *1283:B 11.0679 
4 *475:14 *1284:A 9.3 
5 *475:6 *475:32 14.2857 
6 *475:32 *1426:A 12.0321 
7 *475:32 *1427:A 9.3 
*END

*D_NET *476 0.00236694
*CONN
*I *1288:A I *D sky130_fd_sc_hd__xnor2_2
*I *1438:B2 I *D sky130_fd_sc_hd__a221o_2
*I *1432:A2_N I *D sky130_fd_sc_hd__a2bb2o_2
*I *1482:Q O *D sky130_fd_sc_hd__dfxtp_2
*CAP
1 *1288:A 0.000175467
2 *1438:B2 9.04164e-06
3 *1432:A2_N 0.000178374
4 *1482:Q 0
5 *476:10 0.000475168
6 *476:4 0.000463219
7 *1432:A2_N *592:88 1.05731e-05
8 *1438:B2 *1438:A2 2.84269e-05
9 uio_oe[5] *1438:B2 2.84269e-05
10 uio_oe[5] *476:10 0
11 *1236:A2 *476:10 5.7233e-05
12 *1432:A1_N *1432:A2_N 3.33238e-05
13 *1433:A1_N *476:10 0.000191908
14 *1437:B1 *1432:A2_N 0.000163498
15 *1437:B1 *476:10 4.35621e-05
16 *1438:A1 *1432:A2_N 9.60939e-05
17 *1438:B1 *1432:A2_N 0.000160394
18 *1438:B1 *476:10 8.6229e-06
19 *1438:C1 *476:10 3.34687e-05
20 *1439:C1 *1432:A2_N 1.73844e-05
21 *1482:D *1288:A 2.59355e-05
22 *1482:D *476:10 9.46929e-05
23 *125:16 *476:10 1.59782e-05
24 *419:35 *1288:A 5.61514e-05
*RES
1 *1482:Q *476:4 9.3 
2 *476:4 *476:10 10.6429 
3 *476:10 *1432:A2_N 18.1393 
4 *476:10 *1438:B2 14.0857 
5 *476:4 *1288:A 12.2107 
*END

*D_NET *477 0.0106101
*CONN
*I *1422:A I *D sky130_fd_sc_hd__and2_2
*I *1423:A I *D sky130_fd_sc_hd__nor2_2
*I *1420:A I *D sky130_fd_sc_hd__nor2_2
*I *1419:A I *D sky130_fd_sc_hd__and2_2
*I *1383:A I *D sky130_fd_sc_hd__nor2_2
*I *1415:A I *D sky130_fd_sc_hd__and2_2
*I *1365:A1 I *D sky130_fd_sc_hd__a31o_2
*I *1416:A I *D sky130_fd_sc_hd__nor2_2
*I *1573:A I *D sky130_fd_sc_hd__buf_1
*I *1502:Q O *D sky130_fd_sc_hd__dfxtp_2
*CAP
1 *1422:A 0.000156256
2 *1423:A 0.000326377
3 *1420:A 0
4 *1419:A 0
5 *1383:A 0.000104858
6 *1415:A 1.78077e-05
7 *1365:A1 6.59684e-05
8 *1416:A 6.67589e-05
9 *1573:A 0.000280411
10 *1502:Q 0.000139689
11 *477:94 0.000491638
12 *477:81 0.000393347
13 *477:35 0.000196638
14 *477:16 0.000571782
15 *477:14 0.000690241
16 *477:12 0.000617464
17 *477:10 0.000777117
18 *477:6 0.000777342
19 *1383:A *1598:addr[2] 0.000216304
20 *1383:A *564:36 0.000170661
21 *1383:A *564:45 4.56437e-05
22 *1415:A *1412:A 2.04263e-05
23 *1422:A *486:27 2.32625e-05
24 *1422:A *564:111 0.00010326
25 *1573:A *1352:A 0.000563402
26 *1573:A *1413:B 0.000194094
27 *1573:A *1550:A 9.90431e-05
28 *1573:A *484:8 1.98839e-05
29 *1573:A *512:28 0.000142856
30 *1573:A *553:37 8.97977e-05
31 *1573:A *553:48 0.000194358
32 *477:10 *1293:A 2.14658e-05
33 *477:12 *1293:A 0.00012747
34 *477:14 *1293:A 5.33005e-05
35 *477:14 *1392:A 0.000158436
36 *477:14 *1412:A 0.000371177
37 *477:16 *1352:A 8.17274e-05
38 *477:16 *1412:A 0.000251998
39 *477:16 *1412:B 4.51416e-05
40 *477:35 *1352:A 2.95642e-05
41 *477:35 *553:37 0
42 *477:81 *1293:A 0.000419407
43 *477:81 *1350:A 0.000125724
44 *477:81 *1350:B 0.00010326
45 *477:81 *1411:B 6.16925e-05
46 *477:81 *564:45 9.59324e-05
47 *477:94 *1411:B 3.55407e-05
48 *477:94 *1420:B 0
49 *1352:C *477:35 5.1588e-05
50 *1362:A1 *1416:A 5.7836e-06
51 *1365:A2 *1416:A 3.68759e-05
52 *1365:A3 *1365:A1 9.90367e-05
53 *1365:A3 *477:16 4.03248e-05
54 *1365:B1 *1573:A 2.44318e-05
55 *1383:B *1383:A 6.17796e-06
56 *1384:A2 *1383:A 5.23792e-05
57 *1396:B1 *1383:A 2.95229e-05
58 *1417:A1 *477:14 0.00010096
59 *1421:A1 *477:81 0
60 *1421:A2 *477:94 0
61 *1424:A1 *1422:A 2.27416e-05
62 *1502:D *477:10 4.19935e-05
63 *1513:D *477:94 0.000130061
64 *1514:D *477:16 0.000141131
65 *322:56 *1573:A 9.41642e-05
66 *322:56 *477:16 5.33005e-05
67 *364:18 *477:6 2.07937e-05
68 *364:18 *477:10 3.44618e-05
69 *417:68 *1416:A 6.42242e-05
70 *417:68 *477:35 2.16719e-05
71 *417:131 *477:81 0
72 *417:131 *477:94 0
73 *417:171 *1573:A 0
*RES
1 *1502:Q *477:6 11.0679 
2 *477:6 *477:10 5.89286 
3 *477:10 *477:12 1.35714 
4 *477:12 *477:14 8.75 
5 *477:14 *477:16 5.46429 
6 *477:16 *1573:A 27.7107 
7 *477:16 *477:35 5.83929 
8 *477:35 *1416:A 15.4429 
9 *477:35 *1365:A1 14.7464 
10 *477:14 *1415:A 9.72857 
11 *477:12 *1383:A 21.9607 
12 *477:10 *477:81 11.3036 
13 *477:81 *1419:A 13.8 
14 *477:81 *477:94 8 
15 *477:94 *1420:A 9.3 
16 *477:94 *1423:A 14.8 
17 *477:6 *1422:A 21.425 
*END

*D_NET *478 0.00130769
*CONN
*I *1574:A I *D sky130_fd_sc_hd__buf_1
*I *1347:A I *D sky130_fd_sc_hd__xor2_2
*I *1512:Q O *D sky130_fd_sc_hd__dfxtp_2
*CAP
1 *1574:A 0.000163709
2 *1347:A 6.47246e-05
3 *1512:Q 7.26505e-05
4 *478:8 0.000301084
5 *1574:A *1410:B 4.46186e-06
6 *1574:A *535:39 0
7 *1574:A *553:58 9.60939e-05
8 *1351:A3 *1347:A 5.78426e-05
9 *1351:A3 *1574:A 3.32091e-05
10 *1511:D *1574:A 6.05161e-06
11 *1512:D *1574:A 4.84853e-05
12 *84:24 *478:8 9.60939e-05
13 *227:20 *1347:A 0.000122933
14 *227:20 *1574:A 0.000240349
*RES
1 *1512:Q *478:8 14.7464 
2 *478:8 *1347:A 15.4429 
3 *478:8 *1574:A 17.9071 
*END

*D_NET *479 0.00737304
*CONN
*I *1575:A I *D sky130_fd_sc_hd__buf_1
*I *1349:B I *D sky130_fd_sc_hd__or4_2
*I *1513:Q O *D sky130_fd_sc_hd__dfxtp_2
*CAP
1 *1575:A 0.00234622
2 *1349:B 2.68394e-05
3 *1513:Q 0.000438245
4 *479:8 0.00281131
5 *1349:B *1412:A 8.00806e-05
6 *1349:B *534:22 7.83587e-05
7 *1575:A *1152:A 0.000842279
8 *1575:A *1412:A 3.52836e-05
9 *1575:A *534:22 4.38265e-05
10 *1575:A *587:70 0.000230414
11 *1178:A *1575:A 4.51691e-05
12 *1198:A1 *1575:A 4.32309e-05
13 *1513:CLK *479:8 7.45054e-06
14 *1513:D *479:8 0.00018761
15 *1590:A *1575:A 0.000129279
16 *1591:A *1575:A 2.74485e-05
17 *81:18 *1575:A 0
18 *194:35 *1575:A 0
*RES
1 *1513:Q *479:8 19.2643 
2 *479:8 *1349:B 14.8357 
3 *479:8 *1575:A 27.0165 
*END

*D_NET *480 0.00189038
*CONN
*I *1576:A I *D sky130_fd_sc_hd__buf_1
*I *1349:A I *D sky130_fd_sc_hd__or4_2
*I *1514:Q O *D sky130_fd_sc_hd__dfxtp_2
*CAP
1 *1576:A 4.44927e-05
2 *1349:A 0
3 *1514:Q 0.000480645
4 *480:12 0.000525137
5 *480:12 *1152:A 0
6 *480:12 *1598:addr[2] 0
7 *480:12 *512:28 3.69697e-05
8 *480:12 *534:22 0.000134942
9 *1350:D *1576:A 0.00010096
10 *1588:A *480:12 0.00015304
11 *103:30 *1576:A 0.000186669
12 *426:12 *480:12 0.000227526
*RES
1 *1514:Q *480:12 27.2821 
2 *480:12 *1349:A 9.3 
3 *480:12 *1576:A 11.0679 
*END

*D_NET *481 0.00302251
*CONN
*I *1577:A I *D sky130_fd_sc_hd__buf_1
*I *1351:C1 I *D sky130_fd_sc_hd__a311o_2
*I *1515:Q O *D sky130_fd_sc_hd__dfxtp_2
*CAP
1 *1577:A 0.000431079
2 *1351:C1 0.000381665
3 *1515:Q 0
4 *481:4 0.000812744
5 *1351:C1 *1144:A 0.000135524
6 *1351:C1 *1413:A 0.0002644
7 *1351:C1 *1413:B 1.77923e-05
8 *1351:C1 *553:37 6.12444e-06
9 *1351:C1 *553:48 9.5779e-05
10 *1577:A *534:22 0.000253453
11 *1351:A1 *1351:C1 4.1331e-06
12 *1515:D *1351:C1 0.000136958
13 *1517:CLK *1577:A 2.23592e-05
14 *1517:D *1577:A 0.000358301
15 *1591:A *1351:C1 0
16 *417:175 *1351:C1 2.44318e-05
17 *417:175 *1577:A 7.77652e-05
*RES
1 *1515:Q *481:4 9.3 
2 *481:4 *1351:C1 26.5679 
3 *481:4 *1577:A 18.9071 
*END

*D_NET *482 0.00364581
*CONN
*I *1349:C I *D sky130_fd_sc_hd__or4_2
*I *1578:A I *D sky130_fd_sc_hd__buf_1
*I *1517:Q O *D sky130_fd_sc_hd__dfxtp_2
*CAP
1 *1349:C 6.80474e-05
2 *1578:A 0.000734454
3 *1517:Q 0.000218524
4 *482:10 0.00102103
5 *1349:C *1349:D 0.000169366
6 *1349:C *534:22 2.14658e-05
7 *1578:A *1349:D 0.000139244
8 *1578:A *483:6 0.000138638
9 *1578:A *553:58 3.4879e-05
10 *482:10 *1412:A 4.06782e-05
11 *1351:B1 *1578:A 0.000143171
12 *1417:A1 *482:10 0.000214128
13 *1417:A2 *482:10 0
14 *1518:CLK *1578:A 9.74742e-05
15 *1518:D *1578:A 1.64343e-05
16 *1590:A *1578:A 0.000164545
17 *1590:A *482:10 0
18 *103:30 *1349:C 0.00026546
19 *103:30 *1578:A 0.000158274
*RES
1 *1517:Q *482:10 22.675 
2 *482:10 *1578:A 21.1214 
3 *482:10 *1349:C 11.8893 
*END

*D_NET *483 0.00363262
*CONN
*I *1349:D I *D sky130_fd_sc_hd__or4_2
*I *1415:B I *D sky130_fd_sc_hd__and2_2
*I *1416:B I *D sky130_fd_sc_hd__nor2_2
*I *1518:Q O *D sky130_fd_sc_hd__dfxtp_2
*CAP
1 *1349:D 0.000160077
2 *1415:B 0
3 *1416:B 0.000314334
4 *1518:Q 0.000101451
5 *483:10 0.000518356
6 *483:6 0.000465549
7 *1349:D *534:22 5.52302e-05
8 *1416:B *1392:A 0
9 *483:10 *1392:A 0
10 *483:10 *1412:A 0
11 *1349:C *1349:D 0.000169366
12 *1362:A2 *1416:B 0.000140088
13 *1365:A3 *1416:B 0
14 *1373:A1 *1416:B 0.000140856
15 *1384:A1 *1416:B 0.000149911
16 *1384:B1 *1416:B 0.000114801
17 *1417:A1 *483:10 0
18 *1417:A2 *1416:B 0.000121842
19 *1417:A2 *483:10 0.000316091
20 *1578:A *1349:D 0.000139244
21 *1578:A *483:6 0.000138638
22 *80:30 *1416:B 0.000255164
23 *84:24 *483:10 0
24 *355:18 *1416:B 1.85668e-05
25 *365:14 *1416:B 0.000313051
*RES
1 *1518:Q *483:6 10.6571 
2 *483:6 *483:10 8.875 
3 *483:10 *1416:B 23.2286 
4 *483:10 *1415:B 13.8 
5 *483:6 *1349:D 12.8536 
*END

*D_NET *484 0.00235895
*CONN
*I *1550:A I *D sky130_fd_sc_hd__dlygate4sd3_1
*I *1352:A I *D sky130_fd_sc_hd__or3_2
*I *1519:Q O *D sky130_fd_sc_hd__dfxtp_2
*CAP
1 *1550:A 5.27885e-05
2 *1352:A 0.000294934
3 *1519:Q 3.4172e-05
4 *484:8 0.000381895
5 *1352:A *1414:A 0.000105729
6 *1352:A *553:37 6.87975e-06
7 *1550:A *512:28 9.11536e-05
8 *1352:C *1352:A 4.26565e-05
9 *1365:A3 *1352:A 4.43256e-05
10 *1365:B1 *1352:A 5.52238e-05
11 *1518:D *1352:A 0.000102545
12 *1573:A *1352:A 0.000563402
13 *1573:A *1550:A 9.90431e-05
14 *1573:A *484:8 1.98839e-05
15 *103:30 *1550:A 0.000243758
16 *103:30 *484:8 8.06826e-05
17 *417:68 *1352:A 1.87097e-05
18 *417:171 *1352:A 9.87935e-06
19 *477:16 *1352:A 8.17274e-05
20 *477:35 *1352:A 2.95642e-05
*RES
1 *1519:Q *484:8 10.2643 
2 *484:8 *1352:A 26.7643 
3 *484:8 *1550:A 11.8893 
*END

*D_NET *485 0.00237048
*CONN
*I *1420:B I *D sky130_fd_sc_hd__nor2_2
*I *1419:B I *D sky130_fd_sc_hd__and2_2
*I *1350:B I *D sky130_fd_sc_hd__or4_2
*I *1520:Q O *D sky130_fd_sc_hd__dfxtp_2
*CAP
1 *1420:B 0.000118438
2 *1419:B 0
3 *1350:B 0.000115054
4 *1520:Q 0.000676229
5 *485:25 0.000148822
6 *485:10 0.000821668
7 *1350:B *1411:B 0.000102545
8 *1421:A2 *1420:B 7.83366e-05
9 *1513:CLK *1350:B 3.98547e-05
10 *1513:CLK *1420:B 9.90367e-05
11 *1513:CLK *485:10 1.02821e-05
12 *1513:CLK *485:25 1.3701e-05
13 *1513:D *1350:B 6.05161e-06
14 *1520:CLK *485:10 3.23206e-05
15 *1520:D *485:10 4.87669e-06
16 *477:81 *1350:B 0.00010326
17 *477:94 *1420:B 0
*RES
1 *1520:Q *485:10 17.7821 
2 *485:10 *1350:B 20.9964 
3 *485:10 *485:25 0.732143 
4 *485:25 *1419:B 9.3 
5 *485:25 *1420:B 21.4964 
*END

*D_NET *486 0.0031374
*CONN
*I *1423:B I *D sky130_fd_sc_hd__nor2_2
*I *1422:B I *D sky130_fd_sc_hd__and2_2
*I *1350:A I *D sky130_fd_sc_hd__or4_2
*I *1521:Q O *D sky130_fd_sc_hd__dfxtp_2
*CAP
1 *1423:B 0.000439179
2 *1422:B 4.35938e-05
3 *1350:A 0.000308209
4 *1521:Q 0
5 *486:27 0.000793721
6 *486:4 0.000619157
7 *1350:A *1411:B 0.000127439
8 *1350:A *564:90 8.86413e-05
9 *1350:A *564:103 2.14757e-05
10 *486:27 *564:103 0.000210051
11 *1422:A *486:27 2.32625e-05
12 *1424:A1 *486:27 0.00014285
13 *1424:A2 *1422:B 0
14 *1424:A2 *1423:B 0
15 *1503:D *1422:B 0
16 *1503:D *1423:B 0
17 *1520:D *486:27 5.71472e-05
18 *417:92 *1350:A 0.000136951
19 *477:81 *1350:A 0.000125724
*RES
1 *1521:Q *486:4 9.3 
2 *486:4 *1350:A 23.3536 
3 *486:4 *486:27 10.125 
4 *486:27 *1422:B 14.5321 
5 *486:27 *1423:B 21.2464 
*END

*D_NET *487 0.00165168
*CONN
*I *1350:C I *D sky130_fd_sc_hd__or4_2
*I *1549:A I *D sky130_fd_sc_hd__dlygate4sd3_1
*I *1516:Q O *D sky130_fd_sc_hd__dfxtp_2
*CAP
1 *1350:C 0.000303054
2 *1549:A 0.000117592
3 *1516:Q 0.000420646
4 *1350:C *1411:B 0.000148196
5 *1350:C *1598:addr[2] 0.000148196
6 *1521:D *1549:A 0
7 *84:24 *1549:A 0.000125724
8 *417:81 *1350:C 0.000144773
9 *417:81 *1549:A 1.40415e-05
10 *417:92 *1350:C 0.000229456
*RES
1 *1516:Q *1549:A 29.7786 
2 *1516:Q *1350:C 32.9571 
*END

*D_NET *488 0.00497847
*CONN
*I *1579:A I *D sky130_fd_sc_hd__buf_1
*I *1392:A I *D sky130_fd_sc_hd__nor2_2
*I *1364:A I *D sky130_fd_sc_hd__nor2_2
*I *1503:Q O *D sky130_fd_sc_hd__dfxtp_2
*CAP
1 *1579:A 0
2 *1392:A 0.000575947
3 *1364:A 2.99547e-05
4 *1503:Q 0.000352334
5 *488:18 0.0011312
6 *488:8 0.00087763
7 *1392:A *1293:A 7.73097e-05
8 *1392:A *1412:A 3.87554e-05
9 *1392:A *1425:A 0.000142856
10 *488:18 *1421:B1 0.00012401
11 *488:18 *564:111 0
12 *1383:B *1364:A 5.52302e-05
13 *1396:C1 *1392:A 0
14 *1416:B *1392:A 0
15 *1421:A1 *488:18 0.000217533
16 *1502:D *1392:A 0.0001399
17 *1503:CLK *488:8 0.000144773
18 *1503:CLK *488:18 1.02936e-05
19 *1503:D *488:8 0.000494696
20 *84:24 *1392:A 2.09897e-05
21 *355:18 *1364:A 2.59355e-05
22 *364:18 *488:18 0.000100831
23 *417:94 *488:18 8.95863e-05
24 *417:98 *1364:A 2.09897e-05
25 *417:98 *1392:A 0.00010302
26 *417:98 *488:18 1.59782e-05
27 *417:125 *488:18 3.0285e-05
28 *477:14 *1392:A 0.000158436
29 *483:10 *1392:A 0
*RES
1 *1503:Q *488:8 17.55 
2 *488:8 *488:18 14.7054 
3 *488:18 *1364:A 14.6125 
4 *488:18 *1392:A 33.8625 
5 *488:8 *1579:A 9.3 
*END

*D_NET *489 0.00121504
*CONN
*I *1580:A I *D sky130_fd_sc_hd__buf_1
*I *1363:B I *D sky130_fd_sc_hd__or2_2
*I *1504:Q O *D sky130_fd_sc_hd__dfxtp_2
*CAP
1 *1580:A 0
2 *1363:B 9.99503e-05
3 *1504:Q 0.000359892
4 *489:12 0.000459842
5 *489:12 *1363:A 4.94455e-05
6 *489:12 *1401:A 0.000127446
7 *489:12 *490:14 0
8 *1503:D *489:12 1.78353e-05
9 *364:18 *1363:B 0.000100625
*RES
1 *1504:Q *489:12 24.1393 
2 *489:12 *1363:B 11.4786 
3 *489:12 *1580:A 9.3 
*END

*D_NET *490 0.00140016
*CONN
*I *1363:A I *D sky130_fd_sc_hd__or2_2
*I *1581:A I *D sky130_fd_sc_hd__buf_1
*I *1505:Q O *D sky130_fd_sc_hd__dfxtp_2
*CAP
1 *1363:A 0.000116099
2 *1581:A 0
3 *1505:Q 0.000328741
4 *490:14 0.00044484
5 *1363:A *1401:B 9.90367e-05
6 *1363:A *1402:A 4.88637e-05
7 *1363:A *564:111 0
8 *490:14 *1401:B 9.90431e-05
9 *490:14 *1402:A 5.33433e-05
10 *1354:C *490:14 3.90513e-05
11 *1504:CLK *490:14 4.01768e-05
12 *1504:D *490:14 8.15207e-05
13 *489:12 *1363:A 4.94455e-05
14 *489:12 *490:14 0
*RES
1 *1505:Q *490:14 23.7821 
2 *490:14 *1581:A 9.3 
3 *490:14 *1363:A 21.1929 
*END

*D_NET *491 0.00166979
*CONN
*I *1582:A I *D sky130_fd_sc_hd__buf_1
*I *1341:B I *D sky130_fd_sc_hd__xor2_2
*I *1506:Q O *D sky130_fd_sc_hd__dfxtp_2
*CAP
1 *1582:A 0.000319154
2 *1341:B 0.000517039
3 *1506:Q 0.000197885
4 *1341:B *1485:SET_B 3.34366e-05
5 *1341:B *1594:A 5.33005e-05
6 *1341:B *571:53 4.32957e-05
7 *1582:A *1403:A 0
8 *1345:A *1582:A 0
9 *1346:B *1341:B 4.99927e-05
10 *1346:B *1582:A 4.15766e-05
11 *1378:A2 *1582:A 5.47058e-05
12 *1387:A3 *1341:B 6.07328e-05
13 *355:18 *1582:A 0
14 *362:62 *1582:A 9.83442e-05
15 *371:22 *1582:A 3.42509e-05
16 *387:12 *1341:B 0.000166077
*RES
1 *1506:Q *1341:B 23.1839 
2 *1341:B *1582:A 24.2286 
*END

*D_NET *492 0.00269187
*CONN
*I *1583:A I *D sky130_fd_sc_hd__buf_1
*I *1339:B I *D sky130_fd_sc_hd__nand2_2
*I *1340:B I *D sky130_fd_sc_hd__or2_2
*I *1507:Q O *D sky130_fd_sc_hd__dfxtp_2
*CAP
1 *1583:A 0.000204826
2 *1339:B 0.000218377
3 *1340:B 2.1496e-05
4 *1507:Q 0.000175713
5 *492:12 0.00038188
6 *492:8 0.000522547
7 *1583:A *1404:A 0
8 *1583:A *553:89 1.74352e-05
9 *1188:A *1339:B 0.000140933
10 *1345:A *1339:B 0.000120504
11 *1345:A *492:12 0
12 *1345:B *1339:B 1.54142e-05
13 *1345:B *1340:B 5.52238e-05
14 *1346:A *1583:A 0
15 *1346:A *492:8 5.62995e-05
16 *1346:B *492:8 0.00018077
17 *1346:D *1583:A 2.19226e-05
18 *1346:D *492:12 9.29326e-05
19 *1351:A1 *1583:A 4.70852e-05
20 *1371:A1 *1583:A 9.54798e-06
21 *1371:B1 *1583:A 0.000142856
22 *215:24 *1339:B 1.38167e-05
23 *371:22 *1583:A 0.000186669
24 *417:64 *492:8 2.95641e-05
25 *449:51 *1339:B 2.6809e-05
26 *449:51 *492:12 9.25014e-06
*RES
1 *1507:Q *492:8 17.2107 
2 *492:8 *492:12 7.05357 
3 *492:12 *1340:B 9.83571 
4 *492:12 *1339:B 22.1393 
5 *492:8 *1583:A 18.425 
*END

*D_NET *493 0.00236845
*CONN
*I *1584:A I *D sky130_fd_sc_hd__buf_1
*I *1344:B I *D sky130_fd_sc_hd__xor2_2
*I *1508:Q O *D sky130_fd_sc_hd__dfxtp_2
*CAP
1 *1584:A 0.000567743
2 *1344:B 0.000187224
3 *1508:Q 0
4 *493:6 0.000754967
5 *1344:B *533:54 0.000333301
6 *1584:A *1338:A 3.20713e-05
7 *1584:A *1405:B 0
8 *1584:A *496:12 5.52238e-05
9 *1584:A *533:54 2.31791e-05
10 *1192:A1 *1584:A 0
11 *1192:A2 *1344:B 0
12 *1192:A2 *1584:A 0
13 *1295:B *1584:A 7.85868e-05
14 *1344:A *1344:B 3.51442e-05
15 *1488:D *1584:A 3.57844e-05
16 *217:27 *1584:A 0
17 *222:31 *1584:A 0
18 *222:33 *1344:B 0
19 *227:20 *1584:A 8.58705e-05
20 *295:10 *1584:A 0.000179353
21 *417:53 *1584:A 0
*RES
1 *1508:Q *493:6 13.8 
2 *493:6 *1344:B 8.875 
3 *493:6 *1584:A 23.3179 
*END

*D_NET *494 0.00338616
*CONN
*I *1585:A I *D sky130_fd_sc_hd__buf_1
*I *1342:B I *D sky130_fd_sc_hd__nand2_2
*I *1343:B I *D sky130_fd_sc_hd__or2_2
*I *1509:Q O *D sky130_fd_sc_hd__dfxtp_2
*CAP
1 *1585:A 0.000156499
2 *1342:B 5.1733e-05
3 *1343:B 0
4 *1509:Q 0.000818327
5 *494:14 0.00071356
6 *1342:B *1539:A 0.000161769
7 *1585:A *1338:A 8.6229e-06
8 *1585:A *1406:A 0.000133596
9 *1585:A *553:8 5.33005e-05
10 *494:14 *1539:A 5.52302e-05
11 *494:14 *535:39 0.000268521
12 *494:14 *588:84 0
13 *1295:B *1585:A 9.16325e-06
14 *1295:B *494:14 0.000100625
15 *1296:A *1585:A 1.85443e-05
16 *1296:A *494:14 3.61629e-06
17 *1342:A *1342:B 0.000125392
18 *1343:A *1342:B 1.00733e-05
19 *1345:D *1342:B 5.71472e-05
20 *1345:D *494:14 0
21 *1507:D *494:14 0.000153168
22 *176:42 *1585:A 0.00014183
23 *217:27 *1585:A 0.000144391
24 *295:10 *1585:A 1.50738e-05
25 *322:56 *1585:A 4.28106e-05
26 *387:12 *494:14 0
27 *417:53 *494:14 3.05446e-05
28 *417:64 *494:14 2.4452e-05
29 *451:12 *494:14 7.43578e-06
30 *451:119 *1342:B 4.88637e-05
31 *451:119 *494:14 3.18676e-05
*RES
1 *1509:Q *494:14 28.8893 
2 *494:14 *1343:B 9.3 
3 *494:14 *1342:B 12.0321 
4 *1509:Q *1585:A 31.8679 
*END

*D_NET *495 0.00324213
*CONN
*I *1348:A I *D sky130_fd_sc_hd__xor2_2
*I *1586:A I *D sky130_fd_sc_hd__buf_1
*I *1510:Q O *D sky130_fd_sc_hd__dfxtp_2
*CAP
1 *1348:A 0.000114001
2 *1586:A 0.00111188
3 *1510:Q 0
4 *495:4 0.00122588
5 *1586:A *1407:A 0.000148164
6 *1586:A *1408:B 2.56694e-05
7 *1510:CLK *1586:A 7.6644e-05
8 *1510:D *1586:A 0.000162122
9 *79:20 *1348:A 0
10 *79:20 *1586:A 0.000211786
11 *186:33 *1348:A 0.00013641
12 *186:33 *1586:A 2.95726e-05
*RES
1 *1510:Q *495:4 9.3 
2 *495:4 *1586:A 33.05 
3 *495:4 *1348:A 11.7821 
*END

*D_NET *496 0.00476023
*CONN
*I *1587:A I *D sky130_fd_sc_hd__buf_1
*I *1338:A I *D sky130_fd_sc_hd__xor2_2
*I *1511:Q O *D sky130_fd_sc_hd__dfxtp_2
*CAP
1 *1587:A 0.000718681
2 *1338:A 0.000178195
3 *1511:Q 0.000505143
4 *496:12 0.00140202
5 *1338:A *553:8 9.60875e-05
6 *1587:A *1294:D 0
7 *496:12 *1294:D 0.000183726
8 *496:12 *1405:A 1.58306e-05
9 *1198:A1 *1587:A 2.89114e-05
10 *1499:D *1587:A 8.5567e-05
11 *1511:D *496:12 0.00031134
12 *1534:A *1587:A 7.02611e-05
13 *1584:A *1338:A 3.20713e-05
14 *1584:A *496:12 5.52238e-05
15 *1585:A *1338:A 8.6229e-06
16 *80:30 *496:12 0.000117621
17 *83:28 *1338:A 0.00016211
18 *83:28 *1587:A 0.000215738
19 *194:35 *1587:A 9.93531e-05
20 *217:27 *1338:A 2.53083e-05
21 *217:27 *1587:A 7.31401e-05
22 *227:20 *1338:A 5.25192e-06
23 *227:20 *1587:A 3.09531e-05
24 *227:20 *496:12 4.13595e-05
25 *295:10 *1338:A 0.000134271
26 *322:56 *1338:A 9.41642e-05
27 *417:36 *496:12 1.21289e-05
28 *417:47 *496:12 5.71472e-05
*RES
1 *1511:Q *496:12 22.2821 
2 *496:12 *1338:A 17.9071 
3 *496:12 *1587:A 25.5321 
*END

*D_NET *497 0.00146836
*CONN
*I *1414:A I *D sky130_fd_sc_hd__and2_2
*I *1573:X O *D sky130_fd_sc_hd__buf_1
*CAP
1 *1414:A 0.000252975
2 *1573:X 0.000252975
3 *1414:A *1418:A 0.000184521
4 *1351:B1 *1414:A 2.6269e-05
5 *1352:A *1414:A 0.000105729
6 *1518:D *1414:A 0.000100823
7 *103:30 *1414:A 9.57191e-05
8 *417:68 *1414:A 3.17148e-05
9 *417:72 *1414:A 0.000141734
10 *417:158 *1414:A 0.000114045
11 *417:171 *1414:A 0.000161855
*RES
1 *1573:X *1414:A 34.3857 
*END

*D_NET *498 0.000705138
*CONN
*I *1409:A I *D sky130_fd_sc_hd__and2_2
*I *1574:X O *D sky130_fd_sc_hd__buf_1
*CAP
1 *1409:A 0.0002179
2 *1574:X 0.0002179
3 *1409:A *553:58 0.000251073
4 *1511:D *1409:A 1.82657e-05
*RES
1 *1574:X *1409:A 22.4393 
*END

*D_NET *499 0.00272842
*CONN
*I *1410:A I *D sky130_fd_sc_hd__and2_2
*I *1575:X O *D sky130_fd_sc_hd__buf_1
*CAP
1 *1410:A 0.00083636
2 *1575:X 0.00083636
3 *1410:A *1197:B1 0.000134549
4 *1410:A *1410:B 2.82057e-05
5 *1410:A *1491:SET_B 0
6 *1149:B *1410:A 0.000135028
7 *1193:B *1410:A 0.000531286
8 *1512:D *1410:A 7.83659e-05
9 *80:56 *1410:A 1.02821e-05
10 *191:10 *1410:A 0
11 *453:59 *1410:A 0.000137983
*RES
1 *1575:X *1410:A 39.6357 
*END

*D_NET *500 0.000728606
*CONN
*I *1411:A I *D sky130_fd_sc_hd__and2_2
*I *1576:X O *D sky130_fd_sc_hd__buf_1
*CAP
1 *1411:A 0.000199393
2 *1576:X 0.000199393
3 *1411:A *1152:A 0.000163038
4 *1411:A *1598:addr[2] 0.000160732
5 *1411:A *512:28 6.05161e-06
*RES
1 *1576:X *1411:A 32.6179 
*END

*D_NET *501 0.00292423
*CONN
*I *1412:A I *D sky130_fd_sc_hd__and2_2
*I *1577:X O *D sky130_fd_sc_hd__buf_1
*CAP
1 *1412:A 0.00063276
2 *1577:X 0.00063276
3 *1412:A *1412:B 9.90367e-05
4 *1412:A *534:22 0.000185308
5 *1349:B *1412:A 8.00806e-05
6 *1392:A *1412:A 3.87554e-05
7 *1392:B *1412:A 0.000126639
8 *1415:A *1412:A 2.04263e-05
9 *1417:A1 *1412:A 0.000258653
10 *1575:A *1412:A 3.52836e-05
11 *84:24 *1412:A 4.03318e-05
12 *353:8 *1412:A 0.000110348
13 *477:14 *1412:A 0.000371177
14 *477:16 *1412:A 0.000251998
15 *482:10 *1412:A 4.06782e-05
16 *483:10 *1412:A 0
*RES
1 *1577:X *1412:A 44.9929 
*END

*D_NET *502 0.00144927
*CONN
*I *1413:A I *D sky130_fd_sc_hd__and2_2
*I *1578:X O *D sky130_fd_sc_hd__buf_1
*CAP
1 *1413:A 0.000226709
2 *1578:X 0.000226709
3 *1413:A *1140:A 1.21258e-05
4 *1413:A *1144:A 7.50594e-05
5 *1413:A *1413:B 0.000548172
6 *1351:C1 *1413:A 0.0002644
7 *426:16 *1413:A 9.60939e-05
*RES
1 *1578:X *1413:A 35.0464 
*END

*D_NET *503 0.00256496
*CONN
*I *1293:A I *D sky130_fd_sc_hd__and2_2
*I *1579:X O *D sky130_fd_sc_hd__buf_1
*CAP
1 *1293:A 0.000567828
2 *1579:X 0.000567828
3 *1293:A *564:45 6.8646e-06
4 *1392:A *1293:A 7.73097e-05
5 *1421:A1 *1293:A 2.26582e-05
6 *1421:A2 *1293:A 9.90431e-05
7 *1502:D *1293:A 3.18676e-05
8 *1503:CLK *1293:A 0.000114665
9 *417:94 *1293:A 0.000221163
10 *417:125 *1293:A 0.000234094
11 *477:10 *1293:A 2.14658e-05
12 *477:12 *1293:A 0.00012747
13 *477:14 *1293:A 5.33005e-05
14 *477:81 *1293:A 0.000419407
*RES
1 *1579:X *1293:A 40.5643 
*END

*D_NET *504 0.000411311
*CONN
*I *1401:A I *D sky130_fd_sc_hd__and2_2
*I *1580:X O *D sky130_fd_sc_hd__buf_1
*CAP
1 *1401:A 0.000122294
2 *1580:X 0.000122294
3 *1503:D *1401:A 3.92757e-05
4 *489:12 *1401:A 0.000127446
*RES
1 *1580:X *1401:A 29.7786 
*END

*D_NET *505 0.000606834
*CONN
*I *1402:A I *D sky130_fd_sc_hd__and2_2
*I *1581:X O *D sky130_fd_sc_hd__buf_1
*CAP
1 *1402:A 0.000189802
2 *1581:X 0.000189802
3 *1402:A *1401:B 2.58821e-05
4 *1402:A *564:111 1.39726e-05
5 *1354:C *1402:A 3.18676e-05
6 *1363:A *1402:A 4.88637e-05
7 *1504:D *1402:A 5.33005e-05
8 *490:14 *1402:A 5.33433e-05
*RES
1 *1581:X *1402:A 22.4393 
*END

*D_NET *506 0.000901399
*CONN
*I *1403:A I *D sky130_fd_sc_hd__and2_2
*I *1582:X O *D sky130_fd_sc_hd__buf_1
*CAP
1 *1403:A 0.000320914
2 *1582:X 0.000320914
3 *1582:A *1403:A 0
4 *296:26 *1403:A 0.000175502
5 *355:18 *1403:A 2.93017e-05
6 *362:62 *1403:A 5.47676e-05
*RES
1 *1582:X *1403:A 33.6 
*END

*D_NET *507 0.000511858
*CONN
*I *1404:A I *D sky130_fd_sc_hd__and2_2
*I *1583:X O *D sky130_fd_sc_hd__buf_1
*CAP
1 *1404:A 0.000163344
2 *1583:X 0.000163344
3 *1404:A *1404:B 0.000120342
4 *1583:A *1404:A 0
5 *371:22 *1404:A 6.48285e-05
*RES
1 *1583:X *1404:A 30.1893 
*END

*D_NET *508 0.00220369
*CONN
*I *1405:A I *D sky130_fd_sc_hd__and2_2
*I *1584:X O *D sky130_fd_sc_hd__buf_1
*CAP
1 *1405:A 0.000659361
2 *1584:X 0.000659361
3 *1405:A *535:39 0.000479815
4 *1405:A *588:84 0.000198685
5 *1511:D *1405:A 3.23288e-05
6 *80:30 *1405:A 8.3722e-05
7 *417:36 *1405:A 5.71472e-05
8 *417:47 *1405:A 1.74352e-05
9 *496:12 *1405:A 1.58306e-05
*RES
1 *1584:X *1405:A 39.1536 
*END

*D_NET *509 0.00222282
*CONN
*I *1406:A I *D sky130_fd_sc_hd__and2_2
*I *1585:X O *D sky130_fd_sc_hd__buf_1
*CAP
1 *1406:A 0.000665713
2 *1585:X 0.000665713
3 *1406:A *1406:B 5.31101e-05
4 *1131:A *1406:A 3.23658e-05
5 *1295:B *1406:A 7.83659e-05
6 *1509:D *1406:A 8.33504e-05
7 *1585:A *1406:A 0.000133596
8 *176:34 *1406:A 3.10819e-05
9 *176:42 *1406:A 0.000479521
*RES
1 *1585:X *1406:A 46.2964 
*END

*D_NET *510 0.0014862
*CONN
*I *1407:A I *D sky130_fd_sc_hd__and2_2
*I *1586:X O *D sky130_fd_sc_hd__buf_1
*CAP
1 *1407:A 0.000453325
2 *1586:X 0.000453325
3 *1407:A *525:24 0.000141857
4 *1294:A *1407:A 5.33005e-05
5 *1586:A *1407:A 0.000148164
6 *417:6 *1407:A 9.60875e-05
7 *446:31 *1407:A 0.000140142
*RES
1 *1586:X *1407:A 36.2429 
*END

*D_NET *511 0.00140626
*CONN
*I *1408:A I *D sky130_fd_sc_hd__and2_2
*I *1587:X O *D sky130_fd_sc_hd__buf_1
*CAP
1 *1408:A 0.000536012
2 *1587:X 0.000536012
3 *1194:A *1408:A 5.41797e-06
4 *1510:CLK *1408:A 5.52302e-05
5 *1536:A *1408:A 0.000101823
6 *79:20 *1408:A 0.000109267
7 *83:28 *1408:A 6.25005e-05
*RES
1 *1587:X *1408:A 34.8321 
*END

*D_NET *512 0.00545955
*CONN
*I *1540:A I *D sky130_fd_sc_hd__clkdlybuf4s25_1
*I *1588:X O *D sky130_fd_sc_hd__clkdlybuf4s25_1
*CAP
1 *1540:A 0
2 *1588:X 0.00174151
3 *512:28 0.00174151
4 *512:28 *1417:B1 0.000160889
5 *512:28 *534:22 7.6644e-05
6 *512:28 *535:8 0.000117621
7 *1193:A *512:28 0.000316184
8 *1193:B *512:28 9.83642e-05
9 *1411:A *512:28 6.05161e-06
10 *1417:A2 *512:28 2.32517e-05
11 *1513:CLK *512:28 0.000136951
12 *1519:CLK *512:28 0.000375798
13 *1550:A *512:28 9.11536e-05
14 *1573:A *512:28 0.000142856
15 *80:56 *512:28 9.41642e-05
16 *103:30 *512:28 0.000299638
17 *480:12 *512:28 3.69697e-05
*RES
1 *1588:X *512:28 47.3357 
2 *512:28 *1540:A 9.3 
*END

*D_NET *513 0.00548869
*CONN
*I *1385:B1_N I *D sky130_fd_sc_hd__o21ba_2
*I *1389:A0 I *D sky130_fd_sc_hd__mux2_1
*I *1366:C_N I *D sky130_fd_sc_hd__or3b_2
*I *1353:B I *D sky130_fd_sc_hd__nand2_2
*I *1525:X O *D sky130_fd_sc_hd__clkdlybuf4s25_1
*CAP
1 *1385:B1_N 0
2 *1389:A0 7.71938e-05
3 *1366:C_N 0.000371233
4 *1353:B 8.63214e-05
5 *1525:X 5.4334e-05
6 *513:44 0.000156283
7 *513:29 0.00126388
8 *513:8 0.000954214
9 *1353:B *1533:A 2.8266e-06
10 *1353:B *521:12 3.18676e-05
11 *1389:A0 *571:53 0.000134471
12 *513:29 *1386:A1 0.00052262
13 *513:29 *1386:B1 0.000201487
14 *1108:B *1366:C_N 0
15 *1370:A1 *1366:C_N 3.69047e-06
16 *1370:B1 *1366:C_N 0.000112738
17 *1370:B1 *513:44 7.62902e-05
18 *1375:B *1353:B 9.69119e-06
19 *1389:S *513:29 0.000225609
20 *1390:B *1389:A0 2.14757e-05
21 *354:12 *513:29 0.000310286
22 *371:22 *1366:C_N 0.000196785
23 *371:22 *513:44 0.000166934
24 *374:10 *1353:B 1.37292e-05
25 *374:10 *513:8 2.56694e-05
26 *374:27 *1353:B 9.90431e-05
27 *374:27 *513:29 0.000145425
28 *383:8 *1389:A0 0.00022459
*RES
1 *1525:X *513:8 14.8357 
2 *513:8 *1353:B 15.7821 
3 *513:8 *513:29 22.4107 
4 *513:29 *1366:C_N 21.2643 
5 *513:29 *513:44 6.75 
6 *513:44 *1389:A0 11.8893 
7 *513:44 *1385:B1_N 9.3 
*END

*D_NET *514 0.00435618
*CONN
*I *1374:B I *D sky130_fd_sc_hd__or2_2
*I *1379:B I *D sky130_fd_sc_hd__nand2_2
*I *1368:B1 I *D sky130_fd_sc_hd__a21o_2
*I *1526:X O *D sky130_fd_sc_hd__clkdlybuf4s25_1
*CAP
1 *1374:B 0.000253633
2 *1379:B 0.000615111
3 *1368:B1 0.000316114
4 *1526:X 0
5 *514:23 0.00104631
6 *514:6 0.000493677
7 *1368:B1 *1368:A1 5.62995e-05
8 *1368:B1 *1368:A2 0.000119198
9 *1368:B1 *1525:A 3.10885e-05
10 *1368:B1 *1533:A 0.000109211
11 *1368:B1 *521:12 5.42764e-05
12 *1368:B1 *573:41 0
13 *1374:B *1525:A 2.286e-05
14 *1379:B *1385:A1 6.79915e-05
15 *1379:B *1385:A2 7.42369e-05
16 *1379:B *1525:A 5.74499e-06
17 *1379:B *571:53 8.39471e-05
18 *514:23 *1525:A 0.00024818
19 *514:23 *1533:A 2.26327e-05
20 *514:23 *521:12 7.72966e-05
21 *1379:A *1379:B 3.69104e-05
22 *1380:A2 *1379:B 0.000345257
23 *1598:addr[8] *1368:B1 0.000276211
*RES
1 *1526:X *514:6 13.8 
2 *514:6 *1368:B1 21.9786 
3 *514:6 *514:23 8.5 
4 *514:23 *1379:B 26.4429 
5 *514:23 *1374:B 13.7464 
*END

*D_NET *515 0.00370299
*CONN
*I *1367:B I *D sky130_fd_sc_hd__nor2_2
*I *1078:A I *D sky130_fd_sc_hd__inv_2
*I *1369:A1 I *D sky130_fd_sc_hd__a21o_2
*I *1388:A0 I *D sky130_fd_sc_hd__mux2_1
*I *1527:X O *D sky130_fd_sc_hd__clkdlybuf4s25_1
*CAP
1 *1367:B 0.00019449
2 *1078:A 0.000104602
3 *1369:A1 0.000207043
4 *1388:A0 8.68219e-05
5 *1527:X 0
6 *515:8 0.000381635
7 *515:6 0.000251108
8 *515:4 0.000253227
9 *1078:A *1077:A 1.02504e-05
10 *1078:A *1527:A 0.000110844
11 *1078:A *519:34 0.000240484
12 *1367:B *1533:A 0.000282399
13 *1367:B *521:12 9.41642e-05
14 *1369:A1 *1531:A 0.000101596
15 *1369:A1 *519:34 0
16 *1369:A1 *520:10 2.89114e-05
17 *1369:A1 *573:41 6.2169e-06
18 *1388:A0 *1386:B1 0.000223147
19 *515:6 *1527:A 9.90431e-05
20 *515:8 *1527:A 0.00018077
21 *1369:B1 *1369:A1 0.00017432
22 *1375:B *1367:B 0
23 *1380:B1 *1369:A1 1.52978e-05
24 *1380:B1 *1388:A0 5.33005e-05
25 *1380:B1 *515:8 8.46829e-05
26 *1388:A1 *1388:A0 0.000227258
27 *1394:B1 *1369:A1 3.17148e-05
28 *368:19 *1369:A1 0.000164974
29 *374:27 *1367:B 4.27338e-05
30 *374:27 *1388:A0 6.05161e-06
31 *374:27 *515:6 2.44318e-05
32 *374:27 *515:8 2.14757e-05
*RES
1 *1527:X *515:4 9.3 
2 *515:4 *515:6 1.35714 
3 *515:6 *515:8 2.17857 
4 *515:8 *1388:A0 12.3 
5 *515:8 *1369:A1 23.5143 
6 *515:6 *1078:A 21.4607 
7 *515:4 *1367:B 22.425 
*END

*D_NET *516 0.00300744
*CONN
*I *1380:A1 I *D sky130_fd_sc_hd__a311o_2
*I *1386:B1 I *D sky130_fd_sc_hd__a21oi_2
*I *1528:X O *D sky130_fd_sc_hd__clkdlybuf4s25_1
*CAP
1 *1380:A1 0
2 *1386:B1 0.000244253
3 *1528:X 0.000301807
4 *516:10 0.00054606
5 *1386:B1 *1077:A 1.00375e-05
6 *1386:B1 *1386:A1 0.000396048
7 *1386:B1 *1386:A2 0.00022711
8 *516:10 *1077:A 0.000147088
9 *516:10 *1528:A 6.87574e-05
10 *516:10 *517:12 4.27437e-05
11 *1354:B *516:10 7.6644e-05
12 *1380:B1 *1386:B1 0.000170654
13 *1388:A0 *1386:B1 0.000223147
14 *374:27 *1386:B1 0.000238331
15 *374:44 *1386:B1 2.26973e-05
16 *374:44 *516:10 9.0573e-05
17 *513:29 *1386:B1 0.000201487
*RES
1 *1528:X *516:10 18.55 
2 *516:10 *1386:B1 23.0857 
3 *516:10 *1380:A1 13.8 
*END

*D_NET *517 0.002974
*CONN
*I *1376:A I *D sky130_fd_sc_hd__nand2_2
*I *1377:A0 I *D sky130_fd_sc_hd__mux2_1
*I *1527:A I *D sky130_fd_sc_hd__clkdlybuf4s25_1
*I *1528:A I *D sky130_fd_sc_hd__clkdlybuf4s25_1
*I *1529:X O *D sky130_fd_sc_hd__clkdlybuf4s25_1
*CAP
1 *1376:A 0.000113642
2 *1377:A0 3.08129e-05
3 *1527:A 0.000224802
4 *1528:A 8.40751e-05
5 *1529:X 0.000176331
6 *517:12 0.000511213
7 *517:10 0.000295838
8 *1527:A *1077:A 4.52937e-05
9 *1527:A *1525:A 2.26424e-05
10 *1528:A *1077:A 9.71197e-05
11 *1528:A *572:73 2.89114e-05
12 *1078:A *1527:A 0.000110844
13 *1376:B *1376:A 0.00010096
14 *1377:A1 *1376:A 1.15281e-05
15 *1377:A1 *517:10 6.97972e-05
16 *1377:S *517:10 0
17 *1378:A2 *517:10 5.57914e-05
18 *354:12 *1527:A 0.000123288
19 *354:25 *1527:A 0.000214342
20 *374:27 *1527:A 0.000265453
21 *515:6 *1527:A 9.90431e-05
22 *515:8 *1527:A 0.00018077
23 *516:10 *1528:A 6.87574e-05
24 *516:10 *517:12 4.27437e-05
*RES
1 *1529:X *517:10 20.2464 
2 *517:10 *517:12 3.41071 
3 *517:12 *1528:A 11.4786 
4 *517:12 *1527:A 25.8714 
5 *517:10 *1377:A0 9.83571 
6 *1529:X *1376:A 20.7964 
*END

*D_NET *518 0.00360216
*CONN
*I *1385:A1 I *D sky130_fd_sc_hd__o21ba_2
*I *1388:S I *D sky130_fd_sc_hd__mux2_1
*I *1386:A1 I *D sky130_fd_sc_hd__a21oi_2
*I *1366:A I *D sky130_fd_sc_hd__or3b_2
*I *1530:X O *D sky130_fd_sc_hd__clkdlybuf4s25_1
*CAP
1 *1385:A1 0.000188532
2 *1388:S 0
3 *1386:A1 0.000142104
4 *1366:A 0.000217
5 *1530:X 0.000138754
6 *518:23 0.000142104
7 *518:21 0.000282436
8 *518:8 0.000449658
9 *1366:A *520:10 5.52238e-05
10 *1366:A *520:16 4.75972e-05
11 *1366:A *571:53 1.49712e-05
12 *1385:A1 *1385:A2 5.52238e-05
13 *1385:A1 *571:53 0.000181321
14 *1386:A1 *1386:A2 9.44074e-05
15 *518:8 *1531:A 9.46929e-05
16 *518:21 *571:53 4.21078e-05
17 *1108:B *1386:A1 0
18 *1369:B1 *1366:A 1.46717e-05
19 *1370:A1 *1366:A 0
20 *1370:A2 *1366:A 0.000128154
21 *1379:A *1385:A1 0.000142152
22 *1379:B *1385:A1 6.79915e-05
23 *1381:A2 *1385:A1 1.34631e-05
24 *1386:B1 *1386:A1 0.000396048
25 *1389:S *1386:A1 2.28499e-05
26 *1394:B1 *1385:A1 8.359e-05
27 *1394:B1 *518:21 2.81861e-05
28 *368:19 *1366:A 1.67253e-05
29 *368:19 *518:21 1.95772e-05
30 *513:29 *1386:A1 0.00052262
*RES
1 *1530:X *518:8 15.5679 
2 *518:8 *1366:A 18.3179 
3 *518:8 *518:21 1.94643 
4 *518:21 *518:23 4.5 
5 *518:23 *1386:A1 15.1929 
6 *518:23 *1388:S 9.3 
7 *518:21 *1385:A1 18.6393 
*END

*D_NET *519 0.00462176
*CONN
*I *1077:A I *D sky130_fd_sc_hd__inv_2
*I *1380:C1 I *D sky130_fd_sc_hd__a311o_2
*I *1375:A I *D sky130_fd_sc_hd__nand2_2
*I *1368:A1 I *D sky130_fd_sc_hd__a21o_2
*I *1531:X O *D sky130_fd_sc_hd__clkdlybuf4s25_1
*CAP
1 *1077:A 0.000165816
2 *1380:C1 0
3 *1375:A 0.000257325
4 *1368:A1 0.000152816
5 *1531:X 0.000244081
6 *519:34 0.000405969
7 *519:21 0.000551818
8 *519:8 0.000451237
9 *1077:A *572:73 2.58821e-05
10 *1368:A1 *1368:A2 6.18472e-05
11 *1368:A1 *573:41 0.000196413
12 *1375:A *1368:A2 0.000183726
13 *1375:A *1525:A 6.87574e-05
14 *519:8 *520:10 0.000354111
15 *519:21 *1368:A2 4.03318e-05
16 *519:21 *573:41 0.000117196
17 *519:34 *1368:A2 9.71123e-06
18 *519:34 *1525:A 0
19 *519:34 *573:41 2.36897e-05
20 *1078:A *1077:A 1.02504e-05
21 *1078:A *519:34 0.000240484
22 *1354:B *1077:A 4.78056e-05
23 *1368:B1 *1368:A1 5.62995e-05
24 *1369:A1 *519:34 0
25 *1380:B1 *519:34 0.000132516
26 *1386:B1 *1077:A 1.00375e-05
27 *1394:A1 *1077:A 5.52238e-05
28 *1394:A2 *1077:A 0
29 *1527:A *1077:A 4.52937e-05
30 *1528:A *1077:A 9.71197e-05
31 *368:8 *1375:A 0.000440019
32 *374:44 *1077:A 2.89016e-05
33 *516:10 *1077:A 0.000147088
*RES
1 *1531:X *519:8 17.2107 
2 *519:8 *1368:A1 17.3 
3 *519:8 *519:21 1.64286 
4 *519:21 *1375:A 20.5143 
5 *519:21 *519:34 5.28571 
6 *519:34 *1380:C1 13.8 
7 *519:34 *1077:A 18.3536 
*END

*D_NET *520 0.00521305
*CONN
*I *1353:A I *D sky130_fd_sc_hd__nand2_2
*I *1366:B I *D sky130_fd_sc_hd__or3b_2
*I *1385:A2 I *D sky130_fd_sc_hd__o21ba_2
*I *1386:A2 I *D sky130_fd_sc_hd__a21oi_2
*I *1532:X O *D sky130_fd_sc_hd__clkdlybuf4s25_1
*CAP
1 *1353:A 0.000273857
2 *1366:B 0
3 *1385:A2 0.000225501
4 *1386:A2 0.000245763
5 *1532:X 0
6 *520:16 0.000733606
7 *520:10 0.000916947
8 *520:4 0.000928462
9 *1353:A *1533:A 0
10 *1385:A2 *1598:addr[2] 9.16014e-05
11 *1385:A2 *571:53 0.000180701
12 *520:10 *1531:A 7.16452e-05
13 *520:10 *1532:A 7.62417e-05
14 *520:16 *1598:addr[2] 2.77715e-05
15 *520:16 *571:53 0.000146852
16 *1108:B *1386:A2 0
17 *1366:A *520:10 5.52238e-05
18 *1366:A *520:16 4.75972e-05
19 *1369:A1 *520:10 2.89114e-05
20 *1370:A1 *520:16 5.57927e-05
21 *1375:B *1353:A 0
22 *1377:S *1353:A 0.000153047
23 *1379:B *1385:A2 7.42369e-05
24 *1385:A1 *1385:A2 5.52238e-05
25 *1386:A1 *1386:A2 9.44074e-05
26 *1386:B1 *1386:A2 0.00022711
27 *1387:A3 *1386:A2 9.80173e-05
28 *1389:S *1386:A2 2.15245e-05
29 *354:12 *1353:A 2.89016e-05
30 *371:22 *520:16 0
31 *519:8 *520:10 0.000354111
*RES
1 *1532:X *520:4 9.3 
2 *520:4 *520:10 12.0714 
3 *520:10 *520:16 9.625 
4 *520:16 *1386:A2 18.8714 
5 *520:16 *1385:A2 18.9786 
6 *520:10 *1366:B 9.3 
7 *520:4 *1353:A 23.3179 
*END

*D_NET *521 0.00251554
*CONN
*I *1374:A I *D sky130_fd_sc_hd__or2_2
*I *1367:A I *D sky130_fd_sc_hd__nor2_2
*I *1368:A2 I *D sky130_fd_sc_hd__a21o_2
*I *1533:X O *D sky130_fd_sc_hd__clkdlybuf4s25_1
*CAP
1 *1374:A 0.000169898
2 *1367:A 0
3 *1368:A2 0.00026051
4 *1533:X 0.000389113
5 *521:12 0.000479725
6 *1368:A2 *1525:A 9.90431e-05
7 *1368:A2 *573:41 0
8 *1374:A *1525:A 0
9 *521:12 *1533:A 0.000120303
10 *1353:B *521:12 3.18676e-05
11 *1367:B *521:12 9.41642e-05
12 *1368:A1 *1368:A2 6.18472e-05
13 *1368:B1 *1368:A2 0.000119198
14 *1368:B1 *521:12 5.42764e-05
15 *1375:A *1368:A2 0.000183726
16 *1377:S *1374:A 7.8327e-05
17 *354:12 *1374:A 0.00014183
18 *374:10 *1374:A 7.6644e-05
19 *374:27 *521:12 2.77289e-05
20 *514:23 *521:12 7.72966e-05
21 *519:21 *1368:A2 4.03318e-05
22 *519:34 *1368:A2 9.71123e-06
*RES
1 *1533:X *521:12 22.1214 
2 *521:12 *1368:A2 24.7464 
3 *521:12 *1367:A 9.3 
4 *1533:X *1374:A 30.9036 
*END

*D_NET *522 0.00552599
*CONN
*I *1118:A2 I *D sky130_fd_sc_hd__a21oi_2
*I *1158:A2 I *D sky130_fd_sc_hd__a221o_2
*I *1312:A2 I *D sky130_fd_sc_hd__a41o_2
*I *1595:X O *D sky130_fd_sc_hd__clkbuf_2
*CAP
1 *1118:A2 6.62583e-05
2 *1158:A2 0.000407249
3 *1312:A2 0
4 *1595:X 0.000874694
5 *522:32 0.000987465
6 *522:18 0.00152117
7 *1118:A2 *579:87 0.000108754
8 *1118:A2 *580:94 3.45793e-05
9 *1158:A2 *1120:A 9.41642e-05
10 *1158:A2 *1120:C_N 6.90625e-05
11 *522:18 *576:76 0.000197854
12 *522:32 *1111:A1 0.000123617
13 *522:32 *1111:B1 5.1588e-05
14 *522:32 *527:66 5.71472e-05
15 *522:32 *579:87 1.34792e-05
16 *522:32 *580:94 8.21535e-05
17 *1111:A2 *522:32 7.36162e-05
18 *1112:B *522:32 2.59355e-05
19 *1113:A *522:32 3.67252e-05
20 *1113:B *522:32 1.32552e-05
21 *1114:A *1118:A2 5.58875e-06
22 *1117:A *522:18 7.48091e-05
23 *1120:B *1158:A2 6.25878e-05
24 *1123:A *522:18 2.59355e-05
25 *1158:B1 *1158:A2 7.41811e-05
26 *1312:A4 *1158:A2 1.47464e-05
27 *1312:B1 *1158:A2 9.83442e-05
28 *1313:B2 *1158:A2 2.6269e-05
29 *1314:B *522:18 1.33434e-05
30 *1595:A *522:18 0
31 *161:8 *522:32 3.68943e-05
32 *161:59 *522:32 8.81471e-06
33 *162:10 *522:18 1.53528e-05
34 *167:12 *1158:A2 7.32173e-05
35 *200:12 *1158:A2 3.95455e-05
36 *450:50 *522:18 8.97349e-05
37 *450:50 *522:32 2.78576e-05
*RES
1 *1595:X *522:18 30.3893 
2 *522:18 *522:32 17.9107 
3 *522:32 *1312:A2 9.3 
4 *522:32 *1158:A2 18.1482 
5 *522:18 *1118:A2 19.9429 
*END

*D_NET *523 0.00567425
*CONN
*I *1152:A I *D sky130_fd_sc_hd__xor2_2
*I *1589:X O *D sky130_fd_sc_hd__clkdlybuf4s25_1
*CAP
1 *1152:A 0.00214276
2 *1589:X 0.00214276
3 *1152:A *1598:addr[2] 0
4 *1152:A *564:53 0.000199439
5 *1411:A *1152:A 0.000163038
6 *1575:A *1152:A 0.000842279
7 *81:18 *1152:A 0.000173785
8 *191:10 *1152:A 1.01912e-05
9 *217:27 *1152:A 0
10 *372:20 *1152:A 0
11 *480:12 *1152:A 0
*RES
1 *1589:X *1152:A 45.7043 
*END

*D_NET *524 0.00126915
*CONN
*I *1299:B I *D sky130_fd_sc_hd__nand2b_2
*I *1301:B I *D sky130_fd_sc_hd__xor2_2
*I *1596:X O *D sky130_fd_sc_hd__clkbuf_2
*CAP
1 *1299:B 0.000181397
2 *1301:B 0
3 *1596:X 9.06284e-05
4 *524:10 0.000272026
5 *1299:B *528:70 0.000183666
6 *524:10 *528:70 6.42338e-05
7 *1299:A_N *1299:B 6.33588e-05
8 *1300:S *1299:B 0.00016477
9 *1315:A2_N *524:10 5.52302e-05
10 *176:34 *1299:B 6.81083e-05
11 *176:34 *524:10 0.000125731
*RES
1 *1596:X *524:10 15.9786 
2 *524:10 *1301:B 4.5 
3 *524:10 *1299:B 18.7821 
*END

*D_NET *525 0.0147282
*CONN
*I *1298:A2 I *D sky130_fd_sc_hd__a211oi_2
*I *1153:B I *D sky130_fd_sc_hd__or2_2
*I *1297:A2 I *D sky130_fd_sc_hd__a21oi_2
*I *1306:B I *D sky130_fd_sc_hd__or2_2
*I *1303:A3 I *D sky130_fd_sc_hd__a31o_2
*I *1597:X O *D sky130_fd_sc_hd__clkbuf_2
*CAP
1 *1298:A2 2.37855e-05
2 *1153:B 0.00101215
3 *1297:A2 4.15126e-05
4 *1306:B 0.000204603
5 *1303:A3 0
6 *1597:X 0.000810317
7 *525:60 0.00106566
8 *525:45 0.00138004
9 *525:30 0.00136925
10 *525:24 0.00103991
11 *1153:B *579:56 0.000288954
12 *1153:B *584:103 1.01912e-05
13 *1306:B *582:110 1.56e-05
14 *1306:B *597:14 0
15 *525:24 *526:32 0
16 *525:30 *1298:B1 0.000181803
17 *525:30 *527:50 8.6229e-06
18 *525:30 *528:70 9.94354e-05
19 *525:45 *526:68 0.00176446
20 *525:45 *577:70 0
21 *525:45 *579:87 0
22 *525:45 *583:67 0.000302741
23 *1145:B *525:24 0.000399929
24 *1164:B *1153:B 0
25 *1165:B1 *1153:B 0.000230475
26 *1166:A1 *1153:B 0.00028694
27 *1166:B1 *1153:B 0.000395866
28 *1168:A *1306:B 5.33334e-05
29 *1168:B *1306:B 7.41433e-05
30 *1171:A *1153:B 0
31 *1171:A *1306:B 0
32 *1171:C *1297:A2 0.000139907
33 *1172:C *1153:B 3.81843e-05
34 *1177:C *525:24 1.6507e-05
35 *1194:A *525:24 4.98496e-06
36 *1306:A *1306:B 8.47881e-05
37 *1315:A2_N *525:24 7.35637e-05
38 *1356:A1 *1153:B 4.16899e-05
39 *1359:B1 *1153:B 0.000224583
40 *1360:B *1153:B 0.000270069
41 *1407:A *525:24 0.000141857
42 *1489:D *525:24 0.000258467
43 *1508:CLK *525:24 0.000140214
44 *1508:D *525:24 8.83454e-05
45 *176:24 *1153:B 7.55747e-05
46 *190:12 *1153:B 0.000313235
47 *190:14 *1153:B 0.000221634
48 *195:8 *1153:B 1.18064e-05
49 *206:12 *1153:B 9.91086e-05
50 *208:10 *1153:B 9.90431e-05
51 *211:48 *525:30 0.000222541
52 *216:17 *525:24 1.33434e-05
53 *294:22 *1153:B 5.52302e-05
54 *320:50 *1153:B 3.10885e-05
55 *320:50 *1297:A2 9.71197e-05
56 *320:50 *1306:B 1.62539e-05
57 *320:50 *525:60 1.90936e-05
58 *357:10 *1153:B 1.49296e-05
59 *361:10 *1153:B 4.43256e-05
60 *428:10 *1153:B 1.02504e-05
61 *429:42 *1153:B 8.1288e-05
62 *446:27 *525:24 0.000314772
63 *446:31 *525:24 0.000149436
64 *451:18 *525:24 0.000113811
65 *451:18 *525:30 1.98839e-05
66 *451:24 *525:30 9.15621e-06
67 *451:48 *525:45 0.000112431
68 *451:60 *1306:B 0
*RES
1 *1597:X *525:24 36.8536 
2 *525:24 *525:30 9.23214 
3 *525:30 *1303:A3 13.8 
4 *525:30 *525:45 9.6776 
5 *525:45 *1306:B 17.7911 
6 *525:45 *525:60 0.276786 
7 *525:60 *1297:A2 15.1571 
8 *525:60 *1153:B 48.3536 
9 *525:24 *1298:A2 9.72857 
*END

*D_NET *526 0.0215149
*CONN
*I *1256:A I *D sky130_fd_sc_hd__and2_2
*I *1249:B I *D sky130_fd_sc_hd__and2b_2
*I *1244:B I *D sky130_fd_sc_hd__nand2_2
*I *1245:B I *D sky130_fd_sc_hd__or2_2
*I *1274:B I *D sky130_fd_sc_hd__and3_2
*I *1268:B I *D sky130_fd_sc_hd__and3_2
*I *1150:B I *D sky130_fd_sc_hd__or2_2
*I *1298:B1 I *D sky130_fd_sc_hd__a211oi_2
*I *1303:A2 I *D sky130_fd_sc_hd__a31o_2
*I *1294:D I *D sky130_fd_sc_hd__and4_2
*I *1534:X O *D sky130_fd_sc_hd__clkdlybuf4s25_1
*CAP
1 *1256:A 0
2 *1249:B 0
3 *1244:B 0
4 *1245:B 0.000292084
5 *1274:B 0.00010491
6 *1268:B 4.33592e-05
7 *1150:B 5.57433e-05
8 *1298:B1 0.00012744
9 *1303:A2 0.000118488
10 *1294:D 0.00131897
11 *1534:X 0.000427874
12 *526:139 0.000840033
13 *526:116 0.000691762
14 *526:112 9.45391e-05
15 *526:108 0.00020095
16 *526:93 0.000843599
17 *526:68 0.00231187
18 *526:32 0.00273823
19 *1150:B *1150:A 9.54798e-06
20 *1150:B *583:37 4.36829e-05
21 *1245:B *531:31 2.84398e-05
22 *1298:B1 *527:50 5.52238e-05
23 *526:68 *583:37 5.02092e-05
24 *526:68 *583:67 0.00031525
25 *526:68 *586:74 0.000503196
26 *526:93 *1150:A 0.000584395
27 *526:93 *528:30 0.000108295
28 *526:139 *579:40 3.14078e-05
29 uio_oe[0] *1245:B 0
30 uio_out[4] *1245:B 2.04825e-05
31 uio_out[5] *1245:B 9.87983e-06
32 uio_out[6] *1245:B 1.36181e-05
33 *602:CLK *526:93 0.000136792
34 *1156:B *1150:B 0
35 *1177:C *526:32 0
36 *1190:A *526:32 0.000404707
37 *1190:B *526:32 0
38 *1244:A *526:139 5.03772e-05
39 *1245:A *1245:B 1.03169e-05
40 *1249:A_N *526:108 5.17614e-05
41 *1249:A_N *526:112 7.61932e-05
42 *1249:A_N *526:116 4.35452e-05
43 *1265:A1 *526:139 6.87574e-05
44 *1266:B1 *526:139 4.44174e-05
45 *1275:B *1274:B 0
46 *1275:B *526:139 0
47 *1315:A2_N *1298:B1 9.16074e-05
48 *1360:B *526:93 0.000386633
49 *1397:A3 *526:93 1.73823e-05
50 *1398:B1 *526:93 0.000121596
51 *1500:D *526:93 5.37951e-05
52 *1508:CLK *526:32 0
53 *1512:CLK *1294:D 8.11009e-05
54 *1587:A *1294:D 0
55 *182:20 *526:32 0.000102703
56 *194:35 *1294:D 6.81133e-05
57 *194:68 *526:108 1.98839e-05
58 *194:70 *526:108 2.14658e-05
59 *194:90 *526:108 0.00012401
60 *211:48 *1150:B 6.02982e-05
61 *211:48 *1298:B1 1.54142e-05
62 *211:48 *526:68 0.00128884
63 *216:17 *526:32 0
64 *227:20 *1294:D 0.000125147
65 *255:12 *1245:B 3.06406e-05
66 *266:8 *526:139 3.18676e-05
67 *269:17 *526:139 0.000119898
68 *272:10 *526:139 5.01117e-05
69 *275:14 *526:93 0.000183291
70 *282:12 *526:93 0.000220441
71 *284:24 *1268:B 2.89114e-05
72 *284:24 *1274:B 5.52238e-05
73 *284:24 *526:93 1.69961e-05
74 *294:32 *526:32 0
75 *361:10 *526:93 4.97918e-05
76 *418:51 *526:32 0.000755697
77 *418:55 *526:32 0.000146061
78 *426:89 *526:93 8.2958e-06
79 *446:31 *1303:A2 9.52287e-06
80 *446:58 *526:32 1.74903e-05
81 *450:40 *526:32 7.24613e-05
82 *450:50 *1303:A2 8.97225e-05
83 *450:50 *526:32 2.59355e-05
84 *450:74 *1298:B1 0.000145241
85 *450:74 *1303:A2 5.37664e-05
86 *451:18 *1298:B1 9.71197e-05
87 *451:24 *1298:B1 6.75856e-05
88 *451:24 *1303:A2 4.81646e-05
89 *451:48 *1303:A2 4.88588e-05
90 *457:42 *526:93 0.000383145
91 *457:42 *526:108 0
92 *468:24 *526:139 0.00052642
93 *471:22 *1274:B 9.91086e-05
94 *471:22 *526:139 0.000259009
95 *472:39 *526:108 4.58194e-05
96 *472:51 *526:108 4.13496e-05
97 *472:51 *526:112 6.87574e-05
98 *472:51 *526:116 0.000139907
99 *496:12 *1294:D 0.000183726
100 *525:24 *526:32 0
101 *525:30 *1298:B1 0.000181803
102 *525:45 *526:68 0.00176446
*RES
1 *1534:X *1294:D 34.475 
2 *1294:D *526:32 41.05 
3 *526:32 *1303:A2 16.3982 
4 *526:32 *1298:B1 18.3357 
5 *526:32 *526:68 8.63013 
6 *526:68 *1150:B 17.6779 
7 *526:68 *526:93 26.5082 
8 *526:93 *1268:B 9.83571 
9 *526:93 *526:108 12.4107 
10 *526:108 *526:112 1.78571 
11 *526:112 *526:116 5.85714 
12 *526:116 *1274:B 15.675 
13 *526:116 *526:139 17.9821 
14 *526:139 *1245:B 23.2821 
15 *526:139 *1244:B 9.3 
16 *526:112 *1249:B 9.3 
17 *526:108 *1256:A 9.3 
*END

*D_NET *527 0.0141451
*CONN
*I *1142:A I *D sky130_fd_sc_hd__or2_2
*I *1145:A I *D sky130_fd_sc_hd__or2_2
*I *1298:C1 I *D sky130_fd_sc_hd__a211oi_2
*I *1297:B1 I *D sky130_fd_sc_hd__a21oi_2
*I *1120:A I *D sky130_fd_sc_hd__or3b_2
*I *1119:A I *D sky130_fd_sc_hd__or2_2
*I *1111:A1 I *D sky130_fd_sc_hd__o21a_2
*I *1112:A I *D sky130_fd_sc_hd__nor3_2
*I *1196:A1 I *D sky130_fd_sc_hd__a22o_2
*I *1182:A I *D sky130_fd_sc_hd__nand2_2
*I *1535:X O *D sky130_fd_sc_hd__clkdlybuf4s25_1
*CAP
1 *1142:A 1.64648e-05
2 *1145:A 0
3 *1298:C1 2.37855e-05
4 *1297:B1 0
5 *1120:A 0.000115533
6 *1119:A 0.000215257
7 *1111:A1 0.000192772
8 *1112:A 3.78893e-05
9 *1196:A1 0
10 *1182:A 0.000453886
11 *1535:X 0
12 *527:94 0.000589367
13 *527:90 0.000390877
14 *527:66 0.000624557
15 *527:60 0.000936755
16 *527:50 0.000687426
17 *527:44 0.000343208
18 *527:42 0.000520595
19 *527:10 0.000867311
20 *527:4 0.000827429
21 *1111:A1 *1111:B1 0
22 *1111:A1 *1112:C 0.000136432
23 *1119:A *1307:A 0.00014285
24 *1182:A *587:70 0.000308595
25 *527:10 *533:85 1.96802e-06
26 *527:42 *1406:B 0
27 *527:42 *1408:B 0.000169707
28 *527:42 *533:54 0.00059323
29 *527:42 *533:61 0.000103253
30 *527:44 *533:54 0.000133138
31 *527:50 *528:70 7.87346e-05
32 *527:50 *533:54 0.000284939
33 *527:60 *1309:B1 5.42764e-05
34 *527:66 *1309:B1 0.000147807
35 *527:66 *580:88 5.31158e-05
36 *1111:A2 *1111:A1 6.35053e-05
37 *1113:A *527:66 0
38 *1113:B *1111:A1 1.92789e-05
39 *1113:B *1112:A 5.7661e-06
40 *1113:B *527:66 1.92905e-05
41 *1114:A *1111:A1 0.000175519
42 *1118:B1 *527:66 6.46095e-05
43 *1120:B *1120:A 6.05161e-06
44 *1131:A *527:44 0
45 *1158:A2 *1120:A 9.41642e-05
46 *1168:B *527:94 9.00741e-05
47 *1171:C *527:90 0.000740827
48 *1177:B *527:50 5.93879e-05
49 *1182:B *1182:A 7.70035e-05
50 *1196:A2 *527:10 3.36293e-05
51 *1202:B *1182:A 0.000267941
52 *1298:B1 *527:50 5.52238e-05
53 *1300:A1 *527:44 2.57669e-05
54 *1305:A *527:66 0.000105266
55 *1307:C *1119:A 4.72917e-05
56 *1310:D *527:66 4.22135e-06
57 *1313:B2 *1120:A 0.000146257
58 *1313:B2 *527:94 0.000262595
59 *1313:C1 *527:94 0.000125241
60 *1315:A1_N *527:60 1.6507e-05
61 *1315:A1_N *527:66 6.057e-07
62 *1315:A2_N *527:50 1.02936e-05
63 *1315:A2_N *527:60 1.00073e-05
64 *1315:B2 *527:60 4.6025e-06
65 *1316:A1 *527:94 0
66 *1489:D *527:42 0
67 *1493:D *1182:A 0.000119706
68 *1499:D *1182:A 0.000103667
69 *1510:CLK *527:42 0
70 *1536:A *527:42 0
71 *1596:A *527:60 4.87854e-05
72 *161:59 *527:66 0.000102056
73 *167:12 *1120:A 7.47122e-05
74 *169:8 *1120:A 3.25078e-05
75 *169:8 *527:94 2.77476e-05
76 *176:24 *527:90 1.21258e-05
77 *176:34 *527:50 0
78 *176:34 *527:60 4.13805e-05
79 *182:20 *1142:A 2.89114e-05
80 *187:12 *527:50 0.000123295
81 *194:35 *527:42 0
82 *194:68 *527:10 0.000393936
83 *194:68 *527:42 0
84 *211:48 *527:50 0.000128496
85 *211:48 *527:60 0.000180777
86 *299:6 *527:50 2.89016e-05
87 *299:6 *527:60 2.28598e-05
88 *299:17 *527:60 0
89 *310:8 *527:60 0
90 *322:56 *1142:A 2.89114e-05
91 *418:27 *527:10 1.39841e-05
92 *450:50 *1111:A1 2.09775e-05
93 *450:50 *527:66 0
94 *451:24 *527:50 1.30572e-05
95 *451:48 *527:60 2.09413e-05
96 *451:48 *527:66 0.000105924
97 *451:48 *527:90 0.000699963
98 *451:60 *527:94 0
99 *522:32 *1111:A1 0.000123617
100 *522:32 *527:66 5.71472e-05
101 *525:30 *527:50 8.6229e-06
*RES
1 *1535:X *527:4 9.3 
2 *527:4 *527:10 5.60714 
3 *527:10 *1182:A 35.7643 
4 *527:10 *1196:A1 9.3 
5 *527:4 *527:42 13.7321 
6 *527:42 *527:44 1.94643 
7 *527:44 *527:50 11.75 
8 *527:50 *527:60 10.8214 
9 *527:60 *527:66 12.75 
10 *527:66 *1112:A 10.0321 
11 *527:66 *1111:A1 23.1393 
12 *527:60 *527:90 11.6071 
13 *527:90 *527:94 10.0893 
14 *527:94 *1119:A 16.9429 
15 *527:94 *1120:A 16.6929 
16 *527:90 *1297:B1 9.3 
17 *527:50 *1298:C1 9.72857 
18 *527:44 *1145:A 13.8 
19 *527:42 *1142:A 14.3357 
*END

*D_NET *528 0.0244524
*CONN
*I *1201:A I *D sky130_fd_sc_hd__or2_2
*I *1535:A I *D sky130_fd_sc_hd__clkdlybuf4s25_1
*I *1080:A1 I *D sky130_fd_sc_hd__o21ai_2
*I *1098:A I *D sky130_fd_sc_hd__or3_2
*I *1102:A1 I *D sky130_fd_sc_hd__o21ai_2
*I *1103:A I *D sky130_fd_sc_hd__or3_2
*I *1097:A1 I *D sky130_fd_sc_hd__o21a_2
*I *1079:B I *D sky130_fd_sc_hd__or3_2
*I *1153:A I *D sky130_fd_sc_hd__or2_2
*I *1150:A I *D sky130_fd_sc_hd__or2_2
*I *1536:X O *D sky130_fd_sc_hd__clkdlybuf4s25_1
*CAP
1 *1201:A 0.000456186
2 *1535:A 2.99504e-05
3 *1080:A1 0
4 *1098:A 0
5 *1102:A1 2.08534e-05
6 *1103:A 0.00014868
7 *1097:A1 1.38167e-05
8 *1079:B 0
9 *1153:A 0.000279811
10 *1150:A 0.000261656
11 *1536:X 7.17223e-05
12 *528:146 0.000681521
13 *528:114 0.000934579
14 *528:104 0.000792536
15 *528:93 0.00050624
16 *528:78 0.000736643
17 *528:70 0.00169135
18 *528:30 0.00156088
19 *528:12 0.0027179
20 *528:8 0.00054596
21 *1097:A1 *1098:C 1.31571e-05
22 *1103:A *1102:B1 1.85668e-05
23 *1201:A *533:111 0
24 *1201:A *587:70 7.89748e-05
25 *528:12 *1444:GATE 5.67043e-05
26 *528:12 *533:54 0
27 *528:12 *587:70 3.23658e-05
28 *528:30 *1336:A 6.87975e-06
29 *528:30 *1598:addr[0] 0.000524661
30 *528:30 *575:30 0.000127068
31 *528:30 *575:45 0.000423559
32 *528:70 *1183:A 5.71472e-05
33 *528:70 *1598:addr[0] 0.000108085
34 *528:70 *533:54 0.000442475
35 *528:70 *576:76 0.000498197
36 *528:78 *1183:A 3.55185e-05
37 *528:78 *576:76 0.000109798
38 *528:93 *1098:C 8.07313e-05
39 *528:93 *577:70 8.08476e-06
40 *528:104 *1098:C 3.45052e-05
41 *528:114 *1598:addr[0] 0.000289885
42 *528:114 *570:57 3.15535e-05
43 *528:114 *572:49 0.000373069
44 *528:114 *579:87 0.00105761
45 *528:146 *533:54 0
46 *528:146 *533:61 0
47 *528:146 *587:70 0.000296085
48 *1080:A2 *528:70 1.05731e-05
49 *1081:B *528:78 5.62995e-05
50 *1081:B *528:93 8.49876e-05
51 *1097:A2 *528:93 0
52 *1103:B *1102:A1 2.06178e-05
53 *1103:B *1103:A 0.000113056
54 *1114:A *528:70 5.52302e-05
55 *1123:A *528:70 0.000119778
56 *1123:B *528:70 4.92165e-05
57 *1141:A *528:30 0.000109853
58 *1141:A *528:70 4.16984e-05
59 *1150:B *1150:A 9.54798e-06
60 *1156:B *1150:A 0
61 *1170:A *528:70 0.000224592
62 *1171:C *528:70 9.80405e-05
63 *1183:B *528:70 5.71472e-05
64 *1199:A *1201:A 6.76043e-05
65 *1299:A_N *528:30 5.52238e-05
66 *1299:B *528:70 0.000183666
67 *1304:C *528:70 5.13111e-05
68 *1321:B *528:30 0.000370528
69 *1335:A *528:30 2.18902e-05
70 *1337:A1 *528:30 4.26014e-05
71 *1337:B1 *528:30 9.54798e-06
72 *1399:A1 *528:30 0.00133616
73 *1444:CLK *1201:A 2.70899e-05
74 *1444:CLK *528:12 0.000101006
75 *1490:CLK *1201:A 4.87854e-05
76 *1500:D *1153:A 6.05161e-06
77 *1536:A *528:8 3.67257e-05
78 *80:56 *1201:A 0.000195809
79 *82:20 *528:12 5.35941e-05
80 *82:20 *528:70 0
81 *138:8 *528:93 0.000188586
82 *148:12 *528:93 0.000229456
83 *148:12 *528:104 0.000105733
84 *162:10 *528:70 0
85 *164:22 *528:93 3.65178e-05
86 *164:22 *528:104 1.64583e-05
87 *176:34 *528:70 1.09026e-05
88 *194:68 *1535:A 9.41642e-05
89 *209:16 *1150:A 0
90 *211:48 *528:70 6.48916e-05
91 *214:12 *528:93 0
92 *214:12 *528:114 2.07809e-05
93 *294:22 *1153:A 0.000407061
94 *299:17 *528:70 6.29573e-05
95 *320:24 *1150:A 5.33005e-05
96 *322:8 *528:30 0.000554828
97 *322:56 *528:30 0.000356028
98 *322:56 *528:70 0.000140933
99 *336:6 *528:30 5.49544e-05
100 *336:16 *528:30 9.22222e-06
101 *355:18 *528:30 0.000246305
102 *362:14 *528:30 0
103 *418:27 *1535:A 9.41642e-05
104 *420:37 *1103:A 0.000139913
105 *421:36 *1103:A 5.23142e-05
106 *424:14 *528:78 2.11595e-05
107 *445:8 *528:93 0
108 *445:12 *528:93 0
109 *450:50 *528:70 0.000172924
110 *457:42 *1150:A 0.000467367
111 *457:42 *528:30 0.000103178
112 *524:10 *528:70 6.42338e-05
113 *525:30 *528:70 9.94354e-05
114 *526:93 *1150:A 0.000584395
115 *526:93 *528:30 0.000108295
116 *527:50 *528:70 7.87346e-05
*RES
1 *1536:X *528:8 14.7464 
2 *528:8 *528:12 10.0893 
3 *528:12 *528:30 26.4633 
4 *528:30 *1150:A 22.05 
5 *528:30 *1153:A 19.4071 
6 *528:12 *528:70 42 
7 *528:70 *528:78 13.0357 
8 *528:78 *1079:B 9.3 
9 *528:78 *528:93 17.25 
10 *528:93 *1097:A1 9.72857 
11 *528:93 *528:104 1.375 
12 *528:104 *528:114 14.1094 
13 *528:114 *1103:A 17.2554 
14 *528:114 *1102:A1 14.0768 
15 *528:104 *1098:A 9.3 
16 *528:70 *1080:A1 9.3 
17 *528:8 *528:146 4.07143 
18 *528:146 *1535:A 14.7464 
19 *528:146 *1201:A 21.1393 
*END

*D_NET *529 0.00138821
*CONN
*I *1254:B1 I *D sky130_fd_sc_hd__o21ai_2
*I *1593:A I *D sky130_fd_sc_hd__clkbuf_4
*I *1537:X O *D sky130_fd_sc_hd__clkdlybuf4s25_1
*CAP
1 *1254:B1 0.000150738
2 *1593:A 0.000260715
3 *1537:X 6.93809e-05
4 *529:6 0.000480834
5 *1593:A *1537:A 7.74505e-05
6 *529:6 *1537:A 3.17684e-05
7 uio_oe[5] *1593:A 8.81622e-05
8 *1243:B *1254:B1 3.11908e-05
9 *1243:B *1593:A 9.35794e-06
10 *1252:B *1254:B1 0
11 *1254:A1 *1254:B1 0.000137557
12 *1255:B *1593:A 4.60387e-05
13 *469:8 *1593:A 5.01876e-06
*RES
1 *1537:X *529:6 10.2464 
2 *529:6 *1593:A 22.2286 
3 *529:6 *1254:B1 21.7643 
*END

*D_NET *530 0.0108525
*CONN
*I *1470:RESET_B I *D sky130_fd_sc_hd__dfrtp_2
*I *1471:RESET_B I *D sky130_fd_sc_hd__dfrtp_2
*I *1601:A I *D sky130_fd_sc_hd__and2_1
*I *1472:RESET_B I *D sky130_fd_sc_hd__dfrtp_2
*I *1469:RESET_B I *D sky130_fd_sc_hd__dfrtp_2
*I *1468:RESET_B I *D sky130_fd_sc_hd__dfrtp_2
*I *1465:RESET_B I *D sky130_fd_sc_hd__dfrtp_2
*I *1466:RESET_B I *D sky130_fd_sc_hd__dfrtp_2
*I *1467:RESET_B I *D sky130_fd_sc_hd__dfrtp_2
*I *1593:X O *D sky130_fd_sc_hd__clkbuf_4
*CAP
1 *1470:RESET_B 0
2 *1471:RESET_B 0
3 *1601:A 0
4 *1472:RESET_B 0.00143554
5 *1469:RESET_B 0.000457502
6 *1468:RESET_B 3.44169e-05
7 *1465:RESET_B 0.00034688
8 *1466:RESET_B 0
9 *1467:RESET_B 0.000366503
10 *1593:X 0.000861493
11 *530:96 0.00120144
12 *530:73 0.000318416
13 *530:71 0.000292761
14 *530:47 0.000600966
15 *530:18 0.000423716
16 *530:6 0.000987337
17 *1472:RESET_B *588:22 0
18 *530:71 *1089:A 0
19 *530:96 *1212:A 0.00041632
20 *530:96 *1214:A 0
21 *530:96 *1453:SET_B 0.000153439
22 *530:96 *1458:RESET_B 0.000285268
23 *530:96 *1602:C 8.99562e-05
24 *530:96 *568:126 0.000192845
25 *530:96 *568:133 7.15591e-05
26 *1085:B *1469:RESET_B 0.000290993
27 *1208:B *530:96 0
28 *1209:B *1472:RESET_B 1.30413e-05
29 *1209:B *530:71 0
30 *1209:B *530:73 4.38511e-05
31 *1218:B *530:96 2.79092e-05
32 *1237:C1 *1469:RESET_B 0
33 *1255:A *530:6 0.000255068
34 *1453:CLK *530:96 6.61256e-05
35 *1471:D *1472:RESET_B 5.22029e-05
36 *1471:D *530:73 1.17968e-05
37 *1473:D *530:6 0.000185794
38 *1522:A *1465:RESET_B 0
39 *1522:A *530:18 0
40 *1565:A *530:96 0
41 *147:26 *1469:RESET_B 6.07232e-05
42 *147:26 *1472:RESET_B 0
43 *147:26 *530:71 0
44 *147:26 *530:73 0
45 *419:64 *1469:RESET_B 0
46 *419:72 *1468:RESET_B 1.39711e-05
47 *419:72 *530:47 6.79057e-05
48 *438:22 *530:96 0
49 *438:32 *1472:RESET_B 0.000140768
50 *438:32 *530:96 8.35168e-05
51 *443:10 *530:96 0.000314351
52 *443:21 *530:96 0.000336431
53 *459:12 *1465:RESET_B 5.53289e-05
54 *459:12 *530:18 3.47737e-05
55 *460:40 *1469:RESET_B 7.6644e-05
56 *462:10 *530:47 8.44478e-05
57 *465:18 *1472:RESET_B 0.000100474
*RES
1 *1593:X *530:6 19.6929 
2 *530:6 *1467:RESET_B 0.901786 
3 *530:6 *530:18 5.83929 
4 *530:18 *1466:RESET_B 4.5 
5 *530:18 *1465:RESET_B 10.4911 
6 *1467:RESET_B *530:47 6.09821 
7 *530:47 *1468:RESET_B 0.473214 
8 *530:47 *1469:RESET_B 14.2857 
9 *1469:RESET_B *530:71 8.19643 
10 *530:71 *530:73 1.94643 
11 *530:73 *1472:RESET_B 9.48214 
12 *1472:RESET_B *530:96 44.3304 
13 *530:96 *1601:A 9.3 
14 *530:73 *1471:RESET_B 4.5 
15 *530:71 *1470:RESET_B 4.5 
*END

*D_NET *531 0.00743302
*CONN
*I *1248:A I *D sky130_fd_sc_hd__and3_2
*I *1075:A I *D sky130_fd_sc_hd__inv_2
*I *1172:B I *D sky130_fd_sc_hd__and3b_2
*I *1287:A I *D sky130_fd_sc_hd__and3_2
*I *1261:A I *D sky130_fd_sc_hd__and3_2
*I *1538:X O *D sky130_fd_sc_hd__clkdlybuf4s25_1
*CAP
1 *1248:A 0
2 *1075:A 0
3 *1172:B 0.000772181
4 *1287:A 0
5 *1261:A 2.03294e-05
6 *1538:X 0.000149255
7 *531:40 0.000870295
8 *531:31 0.00103901
9 *531:16 0.00121636
10 *531:10 0.000404393
11 *1172:B *1434:B 5.41794e-05
12 *1172:B *579:56 0
13 *1172:B *589:146 0
14 uio_oe[2] *531:16 6.45145e-05
15 *1245:B *531:31 2.84398e-05
16 *1247:C *531:10 0.000174812
17 *1257:A_N *531:31 0
18 *1257:B *531:31 0
19 *1275:A *531:40 0
20 *1276:B *1172:B 0.000228558
21 *1280:A *531:31 1.03483e-05
22 *1280:B *531:31 8.6229e-06
23 *1287:C *531:40 9.80173e-05
24 *1358:A *1172:B 0.000289069
25 *1426:A *1172:B 0.00014285
26 *1436:A1 *531:16 1.50563e-05
27 *134:8 *531:40 0.000140933
28 *134:12 *1172:B 2.56601e-05
29 *134:52 *1172:B 1.08601e-05
30 *255:12 *531:31 7.83587e-05
31 *263:30 *531:16 1.32056e-05
32 *269:8 *1261:A 5.7661e-06
33 *269:8 *531:16 3.42426e-05
34 *269:8 *531:31 2.18985e-05
35 *269:17 *531:31 0.000661174
36 *280:30 *531:40 0.000139019
37 *288:12 *531:31 0
38 *419:187 *531:10 0
39 *419:200 *531:10 0
40 *429:42 *1172:B 0.000208694
41 *468:24 *531:31 2.49484e-05
42 *470:10 *531:31 0.000344533
43 *470:38 *531:31 4.38621e-05
44 *471:22 *1172:B 5.41794e-05
45 *473:28 *1172:B 0
46 *475:32 *1172:B 3.93986e-05
*RES
1 *1538:X *531:10 16.5857 
2 *531:10 *531:16 8.01786 
3 *531:16 *1261:A 9.72857 
4 *531:16 *531:31 24.7321 
5 *531:31 *1287:A 9.3 
6 *531:31 *531:40 3.01786 
7 *531:40 *1172:B 40.5857 
8 *531:40 *1075:A 9.3 
9 *531:10 *1248:A 13.8 
*END

*D_NET *532 0.00112571
*CONN
*I *1594:A I *D sky130_fd_sc_hd__clkbuf_4
*I *1486:RESET_B I *D sky130_fd_sc_hd__dfrtp_2
*I *1539:X O *D sky130_fd_sc_hd__clkdlybuf4s25_1
*CAP
1 *1594:A 0.000211939
2 *1486:RESET_B 0.00014426
3 *1539:X 0
4 *532:6 0.000356199
5 *1486:RESET_B *572:73 2.52688e-05
6 *1594:A *571:53 0.000103749
7 *1341:B *1594:A 5.33005e-05
8 *446:58 *1486:RESET_B 0
9 *449:34 *1486:RESET_B 0.000175519
10 *449:34 *1594:A 5.5474e-05
*RES
1 *1539:X *532:6 13.8 
2 *532:6 *1486:RESET_B 7.63393 
3 *532:6 *1594:A 17.8536 
*END

*D_NET *533 0.0199051
*CONN
*I *1484:SET_B I *D sky130_fd_sc_hd__dfstp_2
*I *1483:SET_B I *D sky130_fd_sc_hd__dfstp_2
*I *1492:RESET_B I *D sky130_fd_sc_hd__dfrtp_2
*I *1490:SET_B I *D sky130_fd_sc_hd__dfstp_2
*I *1273:B I *D sky130_fd_sc_hd__and3b_2
*I *1279:B I *D sky130_fd_sc_hd__and3b_2
*I *1493:RESET_B I *D sky130_fd_sc_hd__dfrtp_2
*I *1487:RESET_B I *D sky130_fd_sc_hd__dfrtp_2
*I *1485:SET_B I *D sky130_fd_sc_hd__dfstp_2
*I *1594:X O *D sky130_fd_sc_hd__clkbuf_4
*CAP
1 *1484:SET_B 6.81775e-05
2 *1483:SET_B 0.000133952
3 *1492:RESET_B 8.57477e-05
4 *1490:SET_B 0
5 *1273:B 2.23854e-05
6 *1279:B 0.000496793
7 *1493:RESET_B 0
8 *1487:RESET_B 0.00164602
9 *1485:SET_B 0.00132524
10 *1594:X 0.000291816
11 *533:111 0.000276524
12 *533:85 0.0019474
13 *533:61 0.0017601
14 *533:54 0.00160153
15 *533:32 0.000848614
16 *533:30 0.00163068
17 *1273:B *590:99 0
18 *1279:B *590:99 0.000225616
19 *1485:SET_B *571:53 0.000100119
20 *533:54 *1444:GATE 5.48067e-05
21 *533:54 *590:115 2.07382e-05
22 *533:85 *1139:B 3.67252e-05
23 *533:85 *590:99 0.000256985
24 *533:85 *597:14 3.69047e-06
25 uo_out[3] *533:85 0
26 *1108:A *1485:SET_B 0.000153563
27 *1175:C *533:30 0.000389974
28 *1177:B *533:54 6.67203e-05
29 *1177:C *533:54 0.00027107
30 *1179:A *533:85 4.50149e-05
31 *1182:B *533:85 0.000120604
32 *1192:A1 *533:54 7.32173e-05
33 *1196:A2 *533:85 0.000107752
34 *1196:B2 *533:85 1.21258e-05
35 *1199:A *1492:RESET_B 5.01213e-05
36 *1201:A *533:111 0
37 *1279:C *1279:B 1.77757e-05
38 *1341:B *1485:SET_B 3.34366e-05
39 *1344:A *1487:RESET_B 5.33334e-05
40 *1344:A *533:32 6.05161e-06
41 *1344:A *533:54 8.47011e-05
42 *1344:B *533:54 0.000333301
43 *1387:A3 *1485:SET_B 0.000382962
44 *1444:CLK *1492:RESET_B 0
45 *1444:CLK *533:111 0
46 *1478:D *533:85 5.71472e-05
47 *1479:CLK *1279:B 5.30637e-06
48 *1479:D *1279:B 9.22103e-06
49 *1484:CLK *1487:RESET_B 0
50 *1488:D *533:54 0.000147713
51 *1490:D *533:85 5.71472e-05
52 *1508:D *533:54 0.000307282
53 *1584:A *533:54 2.31791e-05
54 *81:18 *533:85 1.94879e-05
55 *187:12 *533:54 1.56e-05
56 *194:68 *1279:B 0.000132621
57 *194:68 *533:85 0.000937386
58 *217:8 *533:54 8.56854e-05
59 *218:37 *1492:RESET_B 4.46186e-06
60 *275:14 *1279:B 0.000255752
61 *279:8 *1279:B 1.37429e-05
62 *279:12 *1279:B 4.24685e-05
63 *302:6 *533:54 5.33005e-05
64 *387:12 *1485:SET_B 5.33005e-05
65 *418:27 *533:85 0.000394969
66 *418:55 *533:54 0
67 *418:79 *1487:RESET_B 1.03968e-05
68 *418:79 *533:32 9.66073e-06
69 *418:88 *533:30 2.42915e-05
70 *418:88 *533:32 5.90702e-05
71 *445:8 *1483:SET_B 0
72 *445:64 *1483:SET_B 0
73 *446:58 *533:30 0
74 *447:8 *533:30 1.82657e-05
75 *448:10 *533:30 0.00022834
76 *448:12 *533:30 0.000166036
77 *449:10 *1485:SET_B 5.36379e-05
78 *449:10 *533:30 0
79 *449:34 *1485:SET_B 9.58022e-05
80 *453:16 *1492:RESET_B 0
81 *453:16 *533:111 0
82 *472:25 *1279:B 2.94103e-05
83 *527:10 *533:85 1.96802e-06
84 *527:42 *533:54 0.00059323
85 *527:42 *533:61 0.000103253
86 *527:44 *533:54 0.000133138
87 *527:50 *533:54 0.000284939
88 *528:12 *533:54 0
89 *528:70 *533:54 0.000442475
90 *528:146 *533:54 0
91 *528:146 *533:61 0
*RES
1 *1594:X *1485:SET_B 26.6036 
2 *1485:SET_B *533:30 22.7857 
3 *533:30 *533:32 6.28571 
4 *533:32 *1487:RESET_B 2.74107 
5 *1487:RESET_B *533:54 45.5536 
6 *533:54 *1493:RESET_B 4.5 
7 *533:54 *533:61 2.55357 
8 *533:61 *533:85 37.0226 
9 *533:85 *1279:B 26.925 
10 *533:85 *1273:B 9.72857 
11 *533:61 *533:111 3.08929 
12 *533:111 *1490:SET_B 4.5 
13 *533:111 *1492:RESET_B 6.14286 
14 *533:32 *1483:SET_B 11.25 
15 *533:30 *1484:SET_B 1.27679 
*END

*D_NET *534 0.00618732
*CONN
*I *1149:A I *D sky130_fd_sc_hd__xor2_2
*I *1590:X O *D sky130_fd_sc_hd__clkdlybuf4s25_1
*CAP
1 *1149:A 0.00015824
2 *1590:X 0.00178429
3 *534:22 0.00194253
4 *1149:A *1140:A 2.9561e-05
5 *534:22 *1598:addr[2] 0
6 *534:22 *587:90 0.000449539
7 *1144:B *1149:A 0.00012401
8 *1349:B *534:22 7.83587e-05
9 *1349:C *534:22 2.14658e-05
10 *1349:D *534:22 5.52302e-05
11 *1412:A *534:22 0.000185308
12 *1515:CLK *534:22 0.000119808
13 *1517:CLK *534:22 1.83136e-05
14 *1575:A *534:22 4.38265e-05
15 *1577:A *534:22 0.000253453
16 *1588:A *534:22 4.58096e-05
17 *191:10 *1149:A 0.000126639
18 *417:175 *534:22 0.000168966
19 *426:16 *1149:A 0.000315158
20 *454:6 *534:22 5.52302e-05
21 *480:12 *534:22 0.000134942
22 *512:28 *534:22 7.6644e-05
*RES
1 *1590:X *534:22 47.2107 
2 *534:22 *1149:A 23.2464 
*END

*D_NET *535 0.0206146
*CONN
*I *1538:A I *D sky130_fd_sc_hd__clkdlybuf4s25_1
*I *1537:A I *D sky130_fd_sc_hd__clkdlybuf4s25_1
*I *1539:A I *D sky130_fd_sc_hd__clkdlybuf4s25_1
*I *1488:SET_B I *D sky130_fd_sc_hd__dfstp_2
*I *1491:SET_B I *D sky130_fd_sc_hd__dfstp_2
*I *1489:RESET_B I *D sky130_fd_sc_hd__dfrtp_2
*I *1540:X O *D sky130_fd_sc_hd__clkdlybuf4s25_1
*CAP
1 *1538:A 0
2 *1537:A 0.000311752
3 *1539:A 0.00102602
4 *1488:SET_B 0.000145967
5 *1491:SET_B 0.00015438
6 *1489:RESET_B 0.00078572
7 *1540:X 0
8 *535:73 0.000400477
9 *535:69 0.00340939
10 *535:67 0.00370814
11 *535:39 0.00197661
12 *535:8 0.000776892
13 *535:4 0.00102889
14 *535:39 *588:84 5.07157e-05
15 uio_oe[1] *535:73 5.07157e-05
16 *1152:B *1489:RESET_B 0.000102207
17 *1176:A *1539:A 1.74352e-05
18 *1176:B *1539:A 9.60875e-05
19 *1178:A *1489:RESET_B 5.74499e-06
20 *1188:B *1539:A 0.000178847
21 *1193:A *1489:RESET_B 0.000147926
22 *1193:A *1491:SET_B 7.53309e-05
23 *1197:A2 *535:67 0.000123288
24 *1198:A1 *535:67 0.000614781
25 *1198:A2 *535:67 9.87467e-05
26 *1243:B *1537:A 0.000352389
27 *1246:B1 *1537:A 0.000178457
28 *1246:B1 *535:73 1.02504e-05
29 *1252:A *1537:A 0.000175163
30 *1296:A *535:39 9.65182e-05
31 *1338:B *1489:RESET_B 1.78695e-05
32 *1342:A *1539:A 1.64583e-05
33 *1342:B *1539:A 0.000161769
34 *1345:C *1539:A 5.52302e-05
35 *1345:D *1539:A 9.90367e-05
36 *1351:A3 *535:39 9.33578e-05
37 *1382:A2 *535:39 0
38 *1391:A1 *535:39 0
39 *1405:A *535:39 0.000479815
40 *1410:A *1491:SET_B 0
41 *1491:CLK *535:67 2.64852e-05
42 *1507:D *535:39 3.73619e-05
43 *1511:D *535:39 0.000424324
44 *1512:D *1491:SET_B 0
45 *1512:D *535:39 0.0002877
46 *1574:A *535:39 0
47 *1593:A *1537:A 7.74505e-05
48 *79:20 *535:39 0
49 *80:56 *1489:RESET_B 9.52287e-06
50 *80:56 *535:8 9.41642e-05
51 *80:56 *535:39 0
52 *182:10 *535:67 0
53 *191:10 *1489:RESET_B 6.31632e-05
54 *191:10 *1491:SET_B 6.58852e-05
55 *222:31 *535:39 0
56 *227:20 *535:39 0
57 *255:24 *1537:A 5.52302e-05
58 *258:8 *1537:A 0.000140088
59 *387:12 *535:39 0
60 *418:51 *1489:RESET_B 4.73514e-05
61 *446:58 *1539:A 5.19231e-05
62 *449:34 *1539:A 0.000145
63 *449:36 *1539:A 1.39726e-05
64 *451:12 *1488:SET_B 7.56541e-05
65 *451:12 *1539:A 1.21289e-05
66 *453:16 *535:67 0
67 *453:16 *535:69 0.00140074
68 *467:42 *1537:A 6.94952e-05
69 *467:53 *1537:A 2.14757e-05
70 *494:14 *1539:A 5.52302e-05
71 *494:14 *535:39 0.000268521
72 *512:28 *535:8 0.000117621
73 *529:6 *1537:A 3.17684e-05
*RES
1 *1540:X *535:4 9.3 
2 *535:4 *535:8 7.5 
3 *535:8 *1489:RESET_B 12.4018 
4 *535:8 *1491:SET_B 7.35714 
5 *535:4 *535:39 27.6964 
6 *535:39 *1488:SET_B 2.25893 
7 *535:39 *1539:A 23.3 
8 *1489:RESET_B *535:67 18.8393 
9 *535:67 *535:69 56.8036 
10 *535:69 *535:73 6.44643 
11 *535:73 *1537:A 22.7821 
12 *535:73 *1538:A 13.8 
*END

*D_NET *536 0.00209723
*CONN
*I *1144:A I *D sky130_fd_sc_hd__xor2_2
*I *1591:X O *D sky130_fd_sc_hd__clkdlybuf4s25_1
*CAP
1 *1144:A 0.000496873
2 *1591:X 0.000496873
3 *1144:A *1140:A 0.000318319
4 *1144:A *1413:B 0
5 *1347:B *1144:A 5.20751e-05
6 *1351:C1 *1144:A 0.000135524
7 *1413:A *1144:A 7.50594e-05
8 *1519:CLK *1144:A 7.2754e-05
9 *1591:A *1144:A 0
10 *1592:A *1144:A 1.19309e-05
11 *426:16 *1144:A 0.000437821
*RES
1 *1591:X *1144:A 41.0286 
*END

*D_NET *537 0.00151523
*CONN
*I *1599:inc I *D incrementer
*I *1600:HI O *D sky130_fd_sc_hd__conb_1
*CAP
1 *1599:inc 0.000402866
2 *1600:HI 0.000402866
3 *1599:inc *1599:rst_n 3.7566e-05
4 *1599:inc *1602:B 7.83659e-05
5 *1599:inc *1602:C 0
6 *1599:inc *575:26 0.000135574
7 *1599:inc *580:28 0.000180158
8 *1599:inc *581:36 3.81939e-05
9 *1599:inc *584:46 2.09897e-05
10 *1599:inc *584:74 9.76922e-05
11 *1599:inc *588:22 0.000114637
12 *1599:clk *1599:inc 6.31818e-06
*RES
1 *1600:HI *1599:inc 27.6845 
*END

*D_NET *538 0.000773287
*CONN
*I *1400:A2 I *D sky130_fd_sc_hd__a21o_2
*I *1545:X O *D sky130_fd_sc_hd__dlygate4sd3_1
*CAP
1 *1400:A2 4.21875e-05
2 *1545:X 4.21875e-05
3 *1400:A2 *1545:A 0.000276211
4 *1400:A2 *590:115 0.000363837
5 *1400:B1 *1400:A2 4.88637e-05
*RES
1 *1545:X *1400:A2 22.0107 
*END

*D_NET *539 0.00175115
*CONN
*I *1398:A2 I *D sky130_fd_sc_hd__o21a_2
*I *1546:X O *D sky130_fd_sc_hd__dlygate4sd3_1
*CAP
1 *1398:A2 0.000437519
2 *1546:X 0.000437519
3 *1398:A2 *1546:A 0.00010462
4 *1335:C *1398:A2 0.00021028
5 *1397:A1 *1398:A2 0.000107024
6 *1397:A2 *1398:A2 0.000141265
7 *1397:A3 *1398:A2 1.94945e-05
8 *1398:B1 *1398:A2 2.26973e-05
9 *1399:A1 *1398:A2 0.000201965
10 *1400:A1 *1398:A2 7.49387e-06
11 *1500:D *1398:A2 6.05161e-06
12 *294:22 *1398:A2 5.52238e-05
*RES
1 *1546:X *1398:A2 40.8803 
*END

*D_NET *540 0.00120356
*CONN
*I *1243:A I *D sky130_fd_sc_hd__nor2_2
*I *1547:X O *D sky130_fd_sc_hd__dlygate4sd3_1
*CAP
1 *1243:A 0.000371444
2 *1547:X 0.000371444
3 *1243:B *1243:A 0.00046067
*RES
1 *1547:X *1243:A 24.4036 
*END

*D_NET *541 0.00196475
*CONN
*I *1173:A I *D sky130_fd_sc_hd__nor3_2
*I *1548:X O *D sky130_fd_sc_hd__dlygate4sd3_1
*CAP
1 *1173:A 0.000486799
2 *1548:X 0.000486799
3 *1173:A *589:146 3.81005e-05
4 *1130:A_N *1173:A 1.82657e-05
5 *1358:B *1173:A 0.0001399
6 *213:26 *1173:A 0.000119656
7 *320:24 *1173:A 0.000452571
8 *457:42 *1173:A 0.00022266
*RES
1 *1548:X *1173:A 38.1536 
*END

*D_NET *542 0.0040937
*CONN
*I *1140:A I *D sky130_fd_sc_hd__xor2_2
*I *1592:X O *D sky130_fd_sc_hd__clkdlybuf4s25_1
*CAP
1 *1140:A 0.00144426
2 *1592:X 0.00144426
3 *1140:A *1413:B 6.05161e-06
4 *1140:B *1140:A 2.39551e-05
5 *1144:A *1140:A 0.000318319
6 *1144:B *1140:A 0.000122921
7 *1149:A *1140:A 2.9561e-05
8 *1149:B *1140:A 0.000150108
9 *1347:B *1140:A 9.83442e-05
10 *1413:A *1140:A 1.21258e-05
11 *182:10 *1140:A 9.90431e-05
12 *191:10 *1140:A 0.000230482
13 *426:16 *1140:A 0.000114268
*RES
1 *1592:X *1140:A 38.7607 
*END

*D_NET *543 0.000551377
*CONN
*I *1425:A I *D sky130_fd_sc_hd__and2_2
*I *1549:X O *D sky130_fd_sc_hd__dlygate4sd3_1
*CAP
1 *1425:A 0.000201357
2 *1549:X 0.000201357
3 *1425:A *1425:B 5.80706e-06
4 *1392:A *1425:A 0.000142856
5 *1521:D *1425:A 0
6 *84:24 *1425:A 0
*RES
1 *1549:X *1425:A 30.6 
*END

*D_NET *544 0.00234943
*CONN
*I *1418:A I *D sky130_fd_sc_hd__and2_2
*I *1550:X O *D sky130_fd_sc_hd__dlygate4sd3_1
*CAP
1 *1418:A 0.000505237
2 *1550:X 0.000505237
3 *1418:A *1418:B 5.52238e-05
4 *1351:B1 *1418:A 8.12154e-05
5 *1414:A *1418:A 0.000184521
6 *1514:D *1418:A 0.00033423
7 *84:24 *1418:A 0.000439166
8 *103:30 *1418:A 0.000220935
9 *417:72 *1418:A 2.36643e-05
10 *417:171 *1418:A 0
*RES
1 *1550:X *1418:A 38.9214 
*END

*D_NET *545 0.00278065
*CONN
*I *1082:A I *D sky130_fd_sc_hd__xor2_2
*I *1062:A I *D sky130_fd_sc_hd__inv_2
*I *1551:X O *D sky130_fd_sc_hd__dlygate4sd3_1
*CAP
1 *1082:A 2.23854e-05
2 *1062:A 0.000291257
3 *1551:X 0.000576097
4 *545:18 0.000889739
5 *1085:B *1062:A 2.89016e-05
6 *1087:B *1062:A 0
7 *1088:B *1062:A 0
8 *1237:C1 *545:18 3.92757e-05
9 *1465:CLK *1062:A 0
10 *1465:D *1062:A 9.90367e-05
11 *1467:D *545:18 1.90111e-05
12 *419:60 *545:18 0.000317262
13 *419:64 *545:18 0
14 *459:12 *545:18 0
15 *460:40 *545:18 0.00014183
16 *461:29 *545:18 0.000139907
17 *462:10 *545:18 0.000168939
18 *462:47 *1062:A 4.70078e-05
*RES
1 *1551:X *545:18 30.0321 
2 *545:18 *1062:A 23.675 
3 *545:18 *1082:A 9.72857 
*END

*D_NET *546 0.00164563
*CONN
*I *1183:A I *D sky130_fd_sc_hd__nand2_2
*I *1552:X O *D sky130_fd_sc_hd__dlygate4sd3_1
*CAP
1 *1183:A 0.000273423
2 *1552:X 0.000273423
3 *1183:A *576:76 5.33005e-05
4 *1183:B *1183:A 0.000491435
5 *1552:A *1183:A 0.000151061
6 *1598:addr[11] *1183:A 0.000197829
7 *164:22 *1183:A 1.02936e-05
8 *424:14 *1183:A 0.000102197
9 *528:70 *1183:A 5.71472e-05
10 *528:78 *1183:A 3.55185e-05
*RES
1 *1552:X *1183:A 36.2964 
*END

*D_NET *547 0.000394277
*CONN
*I *1096:A I *D sky130_fd_sc_hd__xnor2_2
*I *1553:X O *D sky130_fd_sc_hd__dlygate4sd3_1
*CAP
1 *1096:A 0.000141366
2 *1553:X 0.000141366
3 *1096:A *1210:A 5.65955e-05
4 *1093:B *1096:A 0
5 *1095:A *1096:A 5.49489e-05
6 *1210:B *1096:A 0
7 *1472:CLK *1096:A 0
*RES
1 *1553:X *1096:A 30.0821 
*END

*D_NET *548 0.00103606
*CONN
*I *1216:A I *D sky130_fd_sc_hd__xnor2_2
*I *1554:X O *D sky130_fd_sc_hd__dlygate4sd3_1
*CAP
1 *1216:A 0.000281652
2 *1554:X 0.000281652
3 *1216:A *589:14 0.000185118
4 *1214:B *1216:A 0
5 *1216:B *1216:A 0
6 *1218:B *1216:A 0
7 *1453:D *1216:A 6.05161e-06
8 *427:117 *1216:A 0.000281581
*RES
1 *1554:X *1216:A 33.5643 
*END

*D_NET *549 0.002826
*CONN
*I *1082:B I *D sky130_fd_sc_hd__xor2_2
*I *1555:X O *D sky130_fd_sc_hd__dlygate4sd3_1
*CAP
1 *1082:B 0.000868607
2 *1555:X 0.000868607
3 uio_oe[6] *1082:B 0.000267637
4 *1466:D *1082:B 0.000185643
5 *1467:D *1082:B 3.02581e-06
6 *1555:A *1082:B 0.000292395
7 *419:56 *1082:B 0.000189855
8 *419:60 *1082:B 0.000150235
*RES
1 *1555:X *1082:B 32.6661 
*END

*D_NET *550 0.000790807
*CONN
*I *1197:B1 I *D sky130_fd_sc_hd__a21oi_2
*I *1556:X O *D sky130_fd_sc_hd__dlygate4sd3_1
*CAP
1 *1197:B1 9.66476e-05
2 *1556:X 9.66476e-05
3 *1193:B *1197:B1 0.000185643
4 *1410:A *1197:B1 0.000134549
5 *80:56 *1197:B1 0.00027732
*RES
1 *1556:X *1197:B1 22.8321 
*END

*D_NET *551 0.000440499
*CONN
*I *1228:A I *D sky130_fd_sc_hd__xnor2_2
*I *1557:X O *D sky130_fd_sc_hd__dlygate4sd3_1
*CAP
1 *1228:A 5.45386e-05
2 *1557:X 5.45386e-05
3 *1228:B *1228:A 9.87617e-05
4 *429:16 *1228:A 0.000185368
5 *430:20 *1228:A 4.72917e-05
*RES
1 *1557:X *1228:A 20.7964 
*END

*D_NET *552 0.00272856
*CONN
*I *1206:A I *D sky130_fd_sc_hd__xnor2_2
*I *1558:X O *D sky130_fd_sc_hd__dlygate4sd3_1
*CAP
1 *1206:A 0.000657859
2 *1558:X 0.000657859
3 *1206:A *1204:A 0.000199934
4 *1206:A *1224:A 0
5 *1206:A *591:30 0
6 *1203:A *1206:A 0
7 *1203:B *1206:A 5.49544e-05
8 *1204:B *1206:A 9.60939e-05
9 *1325:B *1206:A 0.000869154
10 *1327:B *1206:A 0
11 *1328:A2 *1206:A 9.49949e-05
12 *1462:D *1206:A 9.77061e-05
*RES
1 *1558:X *1206:A 42.9036 
*END

*D_NET *553 0.015699
*CONN
*I *1407:B I *D sky130_fd_sc_hd__and2_2
*I *1406:B I *D sky130_fd_sc_hd__and2_2
*I *1408:B I *D sky130_fd_sc_hd__and2_2
*I *1412:B I *D sky130_fd_sc_hd__and2_2
*I *1404:B I *D sky130_fd_sc_hd__and2_2
*I *1413:B I *D sky130_fd_sc_hd__and2_2
*I *1409:B I *D sky130_fd_sc_hd__and2_2
*I *1410:B I *D sky130_fd_sc_hd__and2_2
*I *1418:B I *D sky130_fd_sc_hd__and2_2
*I *1405:B I *D sky130_fd_sc_hd__and2_2
*I *1541:X O *D sky130_fd_sc_hd__clkdlybuf4s25_1
*CAP
1 *1407:B 0
2 *1406:B 0.00010324
3 *1408:B 0.000282244
4 *1412:B 0.000457795
5 *1404:B 0.000204746
6 *1413:B 0.000359045
7 *1409:B 0
8 *1410:B 0.000222972
9 *1418:B 1.42885e-05
10 *1405:B 0.000435995
11 *1541:X 0.000340186
12 *553:132 0.000455609
13 *553:126 0.00021656
14 *553:89 0.000761768
15 *553:58 0.00060516
16 *553:48 0.000816289
17 *553:37 0.00045352
18 *553:29 0.00126037
19 *553:8 0.00142672
20 *1131:A *1406:B 4.81867e-05
21 *1140:A *1413:B 6.05161e-06
22 *1144:A *1413:B 0
23 *1296:B *553:8 0.000392019
24 *1338:A *553:8 9.60875e-05
25 *1338:B *553:29 3.26077e-05
26 *1347:B *1410:B 0
27 *1351:A1 *553:37 0
28 *1351:B1 *1418:B 5.33005e-05
29 *1351:C1 *1413:B 1.77923e-05
30 *1351:C1 *553:37 6.12444e-06
31 *1351:C1 *553:48 9.5779e-05
32 *1352:A *553:37 6.87975e-06
33 *1362:A1 *553:37 2.06112e-05
34 *1362:A2 *1412:B 0.000136124
35 *1362:B1_N *553:37 4.11725e-05
36 *1365:A2 *553:37 0.000104044
37 *1365:A3 *1412:B 0.000161027
38 *1371:A1 *1404:B 0
39 *1371:A1 *553:37 6.0655e-05
40 *1371:B1 *553:29 0.000137427
41 *1371:B1 *553:89 2.44318e-05
42 *1378:B1 *1412:B 1.38247e-05
43 *1404:A *1404:B 0.000120342
44 *1406:A *1406:B 5.31101e-05
45 *1409:A *553:58 0.000251073
46 *1410:A *1410:B 2.82057e-05
47 *1412:A *1412:B 9.90367e-05
48 *1413:A *1413:B 0.000548172
49 *1418:A *1418:B 5.52238e-05
50 *1510:CLK *1408:B 8.50795e-06
51 *1511:D *553:58 4.21497e-05
52 *1512:D *1410:B 0.000331058
53 *1514:CLK *1413:B 0
54 *1515:D *1413:B 0.000169683
55 *1573:A *1413:B 0.000194094
56 *1573:A *553:37 8.97977e-05
57 *1573:A *553:48 0.000194358
58 *1574:A *1410:B 4.46186e-06
59 *1574:A *553:58 9.60939e-05
60 *1578:A *553:58 3.4879e-05
61 *1583:A *553:89 1.74352e-05
62 *1584:A *1405:B 0
63 *1585:A *553:8 5.33005e-05
64 *1586:A *1408:B 2.56694e-05
65 *83:28 *553:29 0.00073856
66 *182:20 *1408:B 7.80915e-05
67 *182:20 *553:126 0.000181831
68 *182:20 *553:132 0.000151816
69 *222:31 *1405:B 0.000328515
70 *222:31 *553:29 9.45051e-05
71 *227:20 *1410:B 5.7428e-05
72 *296:14 *1405:B 4.81789e-05
73 *297:6 *553:29 2.14658e-05
74 *322:56 *1408:B 0.000184745
75 *322:56 *553:8 0.000210238
76 *322:56 *553:126 0.000479652
77 *322:56 *553:132 0.000111458
78 *353:8 *1412:B 4.43256e-05
79 *362:47 *1404:B 5.28078e-05
80 *362:47 *1412:B 2.86754e-05
81 *365:14 *1412:B 8.32618e-06
82 *371:22 *553:89 1.99198e-05
83 *417:53 *1405:B 8.70933e-06
84 *417:53 *553:29 3.36355e-06
85 *417:68 *1404:B 3.23218e-05
86 *417:68 *1412:B 7.6963e-05
87 *417:171 *1413:B 0
88 *426:16 *1413:B 4.88637e-05
89 *446:27 *1408:B 0
90 *446:31 *1406:B 0.000186119
91 *446:31 *1408:B 0
92 *477:16 *1412:B 4.51416e-05
93 *477:35 *553:37 0
94 *527:42 *1406:B 0
95 *527:42 *1408:B 0.000169707
*RES
1 *1541:X *553:8 19.2643 
2 *553:8 *1405:B 21.7286 
3 *553:8 *553:29 15.8214 
4 *553:29 *553:37 11.9643 
5 *553:37 *1418:B 14.3357 
6 *553:37 *553:48 2.55357 
7 *553:48 *553:58 12.6964 
8 *553:58 *1410:B 23.2821 
9 *553:58 *1409:B 9.3 
10 *553:48 *1413:B 22.5679 
11 *553:29 *553:89 5.85714 
12 *553:89 *1404:B 16.9607 
13 *553:89 *1412:B 31.3536 
14 *1541:X *553:126 14.3714 
15 *553:126 *553:132 2.32143 
16 *553:132 *1408:B 24.7464 
17 *553:132 *1406:B 20.8536 
18 *553:126 *1407:B 9.3 
*END

*D_NET *554 0.00219449
*CONN
*I *1208:A I *D sky130_fd_sc_hd__xnor2_2
*I *1559:X O *D sky130_fd_sc_hd__dlygate4sd3_1
*CAP
1 *1208:A 0.000564567
2 *1559:X 0.000564567
3 *1208:A *1458:RESET_B 4.97533e-05
4 *1208:A *593:34 1.21258e-05
5 *1330:A0 *1208:A 0.00029175
6 *1330:A1 *1208:A 0.0003689
7 *1332:B1 *1208:A 7.32272e-05
8 *1333:A3 *1208:A 5.73974e-05
9 *1559:A *1208:A 5.52302e-05
10 *437:10 *1208:A 5.98502e-05
11 *437:14 *1208:A 9.71197e-05
*RES
1 *1559:X *1208:A 40.35 
*END

*D_NET *555 0.0032045
*CONN
*I *1222:A I *D sky130_fd_sc_hd__xnor2_2
*I *1560:X O *D sky130_fd_sc_hd__dlygate4sd3_1
*CAP
1 *1222:A 0.000893207
2 *1560:X 0.000893207
3 *1222:A *1451:RESET_B 3.55887e-05
4 *1203:A *1222:A 0.000309273
5 *1203:B *1222:A 0.000107523
6 *1222:B *1222:A 0.000526
7 *1462:D *1222:A 0
8 *1560:A *1222:A 0.000290803
9 *440:10 *1222:A 0.000148903
*RES
1 *1560:X *1222:A 46.4571 
*END

*D_NET *556 0.000980835
*CONN
*I *1226:A I *D sky130_fd_sc_hd__xnor2_2
*I *1561:X O *D sky130_fd_sc_hd__dlygate4sd3_1
*CAP
1 *1226:A 0.000401773
2 *1561:X 0.000401773
3 *1459:D *1226:A 0.000145921
4 *1561:A *1226:A 3.1367e-05
*RES
1 *1561:X *1226:A 25.3143 
*END

*D_NET *557 0.0023348
*CONN
*I *1204:A I *D sky130_fd_sc_hd__xnor2_2
*I *1562:X O *D sky130_fd_sc_hd__dlygate4sd3_1
*CAP
1 *1204:A 0.000487045
2 *1562:X 0.000487045
3 *1204:A *585:46 0.000729284
4 *1206:A *1204:A 0.000199934
5 *1324:A0 *1204:A 0.00030987
6 *1324:A1 *1204:A 3.63775e-05
7 *1325:B *1204:A 1.74352e-05
8 *442:6 *1204:A 3.97657e-05
9 *442:10 *1204:A 2.80449e-05
*RES
1 *1562:X *1204:A 31.0643 
*END

*D_NET *558 0.000463928
*CONN
*I *1230:A I *D sky130_fd_sc_hd__xnor2_2
*I *1563:X O *D sky130_fd_sc_hd__dlygate4sd3_1
*CAP
1 *1230:A 0.000135235
2 *1563:X 0.000135235
3 *1450:CLK *1230:A 3.18676e-05
4 *1454:D *1230:A 0
5 *427:14 *1230:A 0
6 *430:12 *1230:A 0.000128154
7 *430:20 *1230:A 3.34366e-05
*RES
1 *1563:X *1230:A 30.1893 
*END

*D_NET *559 0.0025693
*CONN
*I *1212:A I *D sky130_fd_sc_hd__xnor2_2
*I *1564:X O *D sky130_fd_sc_hd__dlygate4sd3_1
*CAP
1 *1212:A 0.000639347
2 *1564:X 0.000639347
3 *1212:A *1210:A 0.000312215
4 *1457:D *1212:A 0.000182598
5 *1565:A *1212:A 4.12526e-05
6 *437:45 *1212:A 0.000290644
7 *438:32 *1212:A 4.75715e-05
8 *530:96 *1212:A 0.00041632
*RES
1 *1564:X *1212:A 41.7429 
*END

*D_NET *560 0.00343413
*CONN
*I *1214:A I *D sky130_fd_sc_hd__xnor2_2
*I *1565:X O *D sky130_fd_sc_hd__dlygate4sd3_1
*CAP
1 *1214:A 0.000888592
2 *1565:X 0.000888592
3 *1214:A *1601:B 0.000177253
4 *1214:A *1602:C 4.1639e-05
5 *1214:A *585:44 0.00035873
6 *1214:A *589:14 2.00751e-05
7 *1216:B *1214:A 0.00019415
8 *1217:A *1214:A 0.000626406
9 *1217:B *1214:A 1.92905e-05
10 *1218:B *1214:A 0.000219401
11 *530:96 *1214:A 0
*RES
1 *1565:X *1214:A 45.975 
*END

*D_NET *561 0.0018113
*CONN
*I *1184:B I *D sky130_fd_sc_hd__nor2_2
*I *1566:X O *D sky130_fd_sc_hd__dlygate4sd3_1
*CAP
1 *1184:B 0.000306996
2 *1566:X 0.000306996
3 *1184:B *572:49 0.000146382
4 *1101:B1 *1184:B 4.66203e-05
5 *1175:A *1184:B 0.000276211
6 *1175:B *1184:B 1.21365e-05
7 *1175:C *1184:B 0.000215413
8 *1187:A1 *1184:B 5.52238e-05
9 *1346:C *1184:B 0.000416414
10 *211:16 *1184:B 2.89016e-05
*RES
1 *1566:X *1184:B 36.85 
*END

*D_NET *562 0.00255825
*CONN
*I *1224:A I *D sky130_fd_sc_hd__xnor2_2
*I *1567:X O *D sky130_fd_sc_hd__dlygate4sd3_1
*CAP
1 *1224:A 0.000611682
2 *1567:X 0.000611682
3 *1224:A *1324:S 0
4 *1224:A *1463:RESET_B 0.000119252
5 *1224:A *585:44 0.000481792
6 *1206:A *1224:A 0
7 *1322:A1 *1224:A 9.87983e-06
8 *1323:B *1224:A 0
9 *1327:B *1224:A 1.02504e-05
10 *1464:D *1224:A 9.60771e-05
11 *242:20 *1224:A 9.71197e-05
12 *427:61 *1224:A 0.000254036
13 *427:65 *1224:A 0.000266479
*RES
1 *1567:X *1224:A 42.5286 
*END

*D_NET *563 0.00249824
*CONN
*I *1210:A I *D sky130_fd_sc_hd__xnor2_2
*I *1568:X O *D sky130_fd_sc_hd__dlygate4sd3_1
*CAP
1 *1210:A 0.000664357
2 *1568:X 0.000664357
3 *1210:A *1070:A 1.24368e-05
4 *1095:A *1210:A 0.000471944
5 *1096:A *1210:A 5.65955e-05
6 *1096:B *1210:A 5.49544e-05
7 *1210:B *1210:A 5.5782e-05
8 *1212:A *1210:A 0.000312215
9 *1239:B1 *1210:A 1.03037e-05
10 *1472:D *1210:A 5.33005e-05
11 *1568:A *1210:A 9.90367e-05
12 *465:18 *1210:A 4.29615e-05
*RES
1 *1568:X *1210:A 41.9929 
*END

*D_NET *564 0.0113249
*CONN
*I *1424:B1 I *D sky130_fd_sc_hd__o21a_2
*I *1401:B I *D sky130_fd_sc_hd__and2_2
*I *1402:B I *D sky130_fd_sc_hd__and2_2
*I *1421:B1 I *D sky130_fd_sc_hd__o21a_2
*I *1411:B I *D sky130_fd_sc_hd__and2_2
*I *1414:B I *D sky130_fd_sc_hd__and2_2
*I *1417:B1 I *D sky130_fd_sc_hd__o21a_2
*I *1293:B I *D sky130_fd_sc_hd__and2_2
*I *1425:B I *D sky130_fd_sc_hd__and2_2
*I *1403:B I *D sky130_fd_sc_hd__and2_2
*I *1542:X O *D sky130_fd_sc_hd__clkdlybuf4s25_1
*CAP
1 *1424:B1 0
2 *1401:B 0.000297475
3 *1402:B 2.6606e-05
4 *1421:B1 9.79463e-05
5 *1411:B 0.000197836
6 *1414:B 3.80219e-05
7 *1417:B1 0.000344002
8 *1293:B 0
9 *1425:B 0.000114452
10 *1403:B 0.000176195
11 *1542:X 0
12 *564:111 0.000640591
13 *564:103 0.000413118
14 *564:90 0.000359706
15 *564:53 0.00128098
16 *564:45 0.00135767
17 *564:36 0.000460968
18 *564:8 0.000341149
19 *564:4 0.000415748
20 *1403:B *1598:addr[2] 7.80714e-06
21 *1411:B *1598:addr[2] 0.000193048
22 *1425:B *1598:addr[2] 7.49162e-06
23 *564:36 *1598:addr[2] 6.82922e-05
24 *564:45 *1598:addr[2] 9.41724e-05
25 *1152:A *564:53 0.000199439
26 *1293:A *564:45 6.8646e-06
27 *1350:A *1411:B 0.000127439
28 *1350:A *564:90 8.86413e-05
29 *1350:A *564:103 2.14757e-05
30 *1350:B *1411:B 0.000102545
31 *1350:C *1411:B 0.000148196
32 *1354:C *564:111 0.00010096
33 *1363:A *1401:B 9.90367e-05
34 *1363:A *564:111 0
35 *1382:A2 *1403:B 0.000225307
36 *1382:A2 *1425:B 0.000108912
37 *1382:A2 *564:53 0
38 *1383:A *564:36 0.000170661
39 *1383:A *564:45 4.56437e-05
40 *1384:A2 *1425:B 5.52238e-05
41 *1396:A1 *1425:B 0
42 *1396:B1 *1425:B 2.89016e-05
43 *1396:C1 *1425:B 0
44 *1402:A *1401:B 2.58821e-05
45 *1402:A *564:111 1.39726e-05
46 *1417:A2 *1417:B1 9.90431e-05
47 *1421:A1 *1421:B1 5.80706e-06
48 *1422:A *564:111 0.00010326
49 *1424:A2 *1421:B1 0
50 *1424:A2 *564:111 1.76039e-05
51 *1425:A *1425:B 5.80706e-06
52 *1505:CLK *564:36 3.67257e-05
53 *1505:D *564:8 1.07719e-05
54 *1505:D *564:36 1.90111e-05
55 *1513:D *1411:B 0.000125731
56 *1514:D *1417:B1 0.000353913
57 *1516:D *1414:B 5.65955e-05
58 *1520:D *1421:B1 3.93986e-05
59 *1521:D *1425:B 4.46186e-06
60 *1590:A *1417:B1 0.000186101
61 *84:24 *1414:B 4.40586e-05
62 *103:30 *1417:B1 0.000180951
63 *362:103 *1403:B 0.000183726
64 *371:22 *1403:B 0.000248493
65 *417:72 *1414:B 0.000135028
66 *417:92 *564:90 0.000178847
67 *417:94 *564:45 0
68 *417:98 *564:36 0
69 *417:98 *564:45 0
70 *417:125 *1421:B1 0
71 *477:81 *1411:B 6.16925e-05
72 *477:81 *564:45 9.59324e-05
73 *477:94 *1411:B 3.55407e-05
74 *486:27 *564:103 0.000210051
75 *488:18 *1421:B1 0.00012401
76 *488:18 *564:111 0
77 *490:14 *1401:B 9.90431e-05
78 *512:28 *1417:B1 0.000160889
*RES
1 *1542:X *564:4 9.3 
2 *564:4 *564:8 5.03571 
3 *564:8 *1403:B 19.1393 
4 *564:8 *1425:B 16.2821 
5 *564:4 *564:36 10.3393 
6 *564:36 *1293:B 13.8 
7 *564:36 *564:45 3.00893 
8 *564:45 *564:53 8.94545 
9 *564:53 *1417:B1 22.0143 
10 *564:53 *1414:B 15.1571 
11 *564:45 *1411:B 20.7554 
12 *564:45 *564:90 7.91071 
13 *564:90 *1421:B1 20.55 
14 *564:90 *564:103 2.58929 
15 *564:103 *564:111 15.0357 
16 *564:111 *1402:B 9.72857 
17 *564:111 *1401:B 14.3714 
18 *564:103 *1424:B1 9.3 
*END

*D_NET *565 0.00189367
*CONN
*I *1220:A I *D sky130_fd_sc_hd__xnor2_2
*I *1569:X O *D sky130_fd_sc_hd__dlygate4sd3_1
*CAP
1 *1220:A 0.000452382
2 *1569:X 0.000452382
3 *1220:A *1329:S1 0.000228644
4 *1220:A *1331:S 0.000173083
5 *1220:A *1460:RESET_B 0
6 *1220:A *580:53 0.000111204
7 *1220:A *591:22 0.000140777
8 *1220:B *1220:A 0
9 *1332:B1 *1220:A 5.42436e-05
10 *1451:CLK *1220:A 0
11 *1451:D *1220:A 0.000226767
12 *1559:A *1220:A 5.41864e-05
*RES
1 *1569:X *1220:A 38.6 
*END

*D_NET *566 0.0026553
*CONN
*I *1234:A I *D sky130_fd_sc_hd__xnor2_2
*I *1570:X O *D sky130_fd_sc_hd__dlygate4sd3_1
*CAP
1 *1234:A 0.000926695
2 *1570:X 0.000926695
3 *1234:A *1454:RESET_B 8.20201e-05
4 *1234:A *1461:RESET_B 1.25672e-06
5 *1234:A *569:28 5.29322e-05
6 *1234:A *582:66 0
7 *1234:A *585:69 5.78972e-05
8 *1234:B *1234:A 0.000183015
9 *1461:D *1234:A 0.000148105
10 *427:40 *1234:A 0.000276682
*RES
1 *1570:X *1234:A 42.1179 
*END

*D_NET *567 0.00222518
*CONN
*I *1089:A I *D sky130_fd_sc_hd__xor2_2
*I *1571:X O *D sky130_fd_sc_hd__dlygate4sd3_1
*CAP
1 *1089:A 0.00101922
2 *1571:X 0.00101922
3 *1089:A *586:30 0
4 *1089:A *587:18 1.31781e-06
5 *1090:C *1089:A 2.26973e-05
6 *1209:B *1089:A 0
7 *147:26 *1089:A 0.000162728
8 *530:71 *1089:A 0
*RES
1 *1571:X *1089:A 38.4275 
*END

*D_NET *568 0.0137062
*CONN
*I *1458:RESET_B I *D sky130_fd_sc_hd__dfrtp_2
*I *1457:RESET_B I *D sky130_fd_sc_hd__dfrtp_2
*I *1455:RESET_B I *D sky130_fd_sc_hd__dfrtp_2
*I *1453:SET_B I *D sky130_fd_sc_hd__dfstp_2
*I *1460:RESET_B I *D sky130_fd_sc_hd__dfrtp_2
*I *1452:RESET_B I *D sky130_fd_sc_hd__dfrtp_2
*I *1451:RESET_B I *D sky130_fd_sc_hd__dfrtp_2
*I *1462:RESET_B I *D sky130_fd_sc_hd__dfrtp_2
*I *1449:RESET_B I *D sky130_fd_sc_hd__dfrtp_2
*I *1450:RESET_B I *D sky130_fd_sc_hd__dfrtp_2
*I *1543:X O *D sky130_fd_sc_hd__clkdlybuf4s25_1
*CAP
1 *1458:RESET_B 0.000213451
2 *1457:RESET_B 0
3 *1455:RESET_B 0
4 *1453:SET_B 0.000229968
5 *1460:RESET_B 0.000423657
6 *1452:RESET_B 0.00026461
7 *1451:RESET_B 0.000793022
8 *1462:RESET_B 0.000394927
9 *1449:RESET_B 0.00137369
10 *1450:RESET_B 0.00141307
11 *1543:X 0.000329544
12 *568:133 0.000276834
13 *568:126 0.000223442
14 *568:114 0.000390028
15 *1449:RESET_B *1454:RESET_B 4.5854e-05
16 *1449:RESET_B *578:18 0.00191317
17 *1449:RESET_B *580:53 0.000208168
18 *1449:RESET_B *581:61 0.00072484
19 *1449:RESET_B *582:55 2.22424e-05
20 *1449:RESET_B *585:44 0.000109469
21 *1450:RESET_B *1125:C_N 2.8354e-05
22 *1450:RESET_B *1125:D_N 6.80745e-05
23 *1450:RESET_B *580:88 1.90936e-05
24 *1450:RESET_B *581:100 0
25 *1450:RESET_B *585:94 6.17899e-05
26 *1453:SET_B *1602:B 0
27 *1453:SET_B *1602:C 6.58704e-05
28 *1453:SET_B *593:24 1.01912e-05
29 *1458:RESET_B *1602:B 0
30 *1458:RESET_B *593:24 5.80706e-06
31 *1460:RESET_B *1331:S 0
32 *1460:RESET_B *590:30 4.31358e-05
33 *1462:RESET_B *1322:S0 1.98839e-05
34 *568:126 *593:24 0.000197448
35 *568:133 *593:24 7.73662e-05
36 *1125:B *1450:RESET_B 5.7537e-05
37 *1206:B *1460:RESET_B 2.00751e-05
38 *1208:A *1458:RESET_B 4.97533e-05
39 *1208:B *1458:RESET_B 0
40 *1219:B *1451:RESET_B 4.85567e-05
41 *1219:B *1452:RESET_B 0.000388086
42 *1220:A *1460:RESET_B 0
43 *1222:A *1451:RESET_B 3.55887e-05
44 *1325:B *1460:RESET_B 0
45 *1329:A1 *1460:RESET_B 5.3553e-05
46 *1332:A2 *1460:RESET_B 0
47 *1332:B1 *1460:RESET_B 8.9338e-05
48 *1449:CLK *1462:RESET_B 0.000242355
49 *1450:D *1449:RESET_B 5.42764e-05
50 *1462:D *1460:RESET_B 0.000360484
51 *1543:A *1450:RESET_B 0
52 *242:20 *1462:RESET_B 7.54415e-05
53 *427:78 *1462:RESET_B 0.000121411
54 *427:82 *1462:RESET_B 0.000260261
55 *430:12 *1450:RESET_B 0.000135163
56 *431:16 *1449:RESET_B 0.000336758
57 *431:18 *1449:RESET_B 0.000340693
58 *431:28 *1449:RESET_B 0.00010514
59 *434:16 *1449:RESET_B 2.18934e-05
60 *434:16 *1462:RESET_B 0
61 *434:20 *1462:RESET_B 0.000181796
62 *435:25 *1462:RESET_B 5.03175e-05
63 *437:10 *1458:RESET_B 0
64 *443:10 *1453:SET_B 2.7601e-05
65 *530:96 *1453:SET_B 0.000153439
66 *530:96 *1458:RESET_B 0.000285268
67 *530:96 *568:126 0.000192845
68 *530:96 *568:133 7.15591e-05
*RES
1 *1543:X *1450:RESET_B 24.9339 
2 *1450:RESET_B *1449:RESET_B 24.5104 
3 *1449:RESET_B *1462:RESET_B 17.2232 
4 *1462:RESET_B *1451:RESET_B 11.1161 
5 *1451:RESET_B *1452:RESET_B 5.33929 
6 *1451:RESET_B *1460:RESET_B 18.5357 
7 *1452:RESET_B *568:114 4.5 
8 *568:114 *1453:SET_B 9.25893 
9 *568:114 *568:126 4.98214 
10 *568:126 *1455:RESET_B 4.5 
11 *568:126 *568:133 1.94643 
12 *568:133 *1457:RESET_B 4.5 
13 *568:133 *1458:RESET_B 10.1429 
*END

*D_NET *569 0.00633417
*CONN
*I *1463:RESET_B I *D sky130_fd_sc_hd__dfrtp_2
*I *1464:RESET_B I *D sky130_fd_sc_hd__dfrtp_2
*I *1454:RESET_B I *D sky130_fd_sc_hd__dfrtp_2
*I *1456:RESET_B I *D sky130_fd_sc_hd__dfrtp_2
*I *1459:RESET_B I *D sky130_fd_sc_hd__dfrtp_2
*I *1461:RESET_B I *D sky130_fd_sc_hd__dfrtp_2
*I *1544:X O *D sky130_fd_sc_hd__clkdlybuf4s25_1
*CAP
1 *1463:RESET_B 0.000181479
2 *1464:RESET_B 0.000570172
3 *1454:RESET_B 0.00032346
4 *1456:RESET_B 3.94959e-05
5 *1459:RESET_B 0.000720851
6 *1461:RESET_B 0.000996499
7 *1544:X 0.000260428
8 *569:28 0.000784265
9 *1454:RESET_B *582:55 0
10 *1454:RESET_B *582:66 0
11 *1454:RESET_B *585:69 0.000451714
12 *1454:RESET_B *589:146 7.01858e-05
13 *1456:RESET_B *1126:C1 0.000117189
14 *1459:RESET_B *1126:C1 4.28365e-05
15 *1459:RESET_B *581:100 5.33402e-05
16 *1463:RESET_B *1324:S 0.00020455
17 *1154:B *1461:RESET_B 0.000102196
18 *1224:A *1463:RESET_B 0.000119252
19 *1225:B *1463:RESET_B 0
20 *1228:B *1459:RESET_B 0
21 *1234:A *1454:RESET_B 8.20201e-05
22 *1234:A *1461:RESET_B 1.25672e-06
23 *1234:A *569:28 5.29322e-05
24 *1234:B *1456:RESET_B 0.000125724
25 *1234:B *1459:RESET_B 7.25338e-05
26 *1322:A1 *1463:RESET_B 1.90936e-05
27 *1449:RESET_B *1454:RESET_B 4.5854e-05
28 *1450:D *1454:RESET_B 0
29 *1459:CLK *1464:RESET_B 5.33005e-05
30 *1561:A *1464:RESET_B 7.47256e-05
31 *427:14 *1459:RESET_B 0
32 *427:38 *569:28 0.00014285
33 *427:40 *569:28 0.000271345
34 *427:61 *1464:RESET_B 0.000176201
35 *429:8 *1461:RESET_B 9.60875e-05
36 *429:16 *1461:RESET_B 8.11028e-06
37 *429:42 *1461:RESET_B 2.56694e-05
38 *431:16 *1454:RESET_B 0
39 *432:14 *1459:RESET_B 4.85567e-05
*RES
1 *1544:X *1461:RESET_B 22.9875 
2 *1461:RESET_B *569:28 10.8661 
3 *569:28 *1459:RESET_B 10.2589 
4 *569:28 *1456:RESET_B 6.14286 
5 *1461:RESET_B *1454:RESET_B 16.7143 
6 *1459:RESET_B *1464:RESET_B 6.44643 
7 *1464:RESET_B *1463:RESET_B 13.6786 
*END

*D_NET *570 0.0241596
*CONN
*I *1532:A I *D sky130_fd_sc_hd__clkdlybuf4s25_1
*I *1533:A I *D sky130_fd_sc_hd__clkdlybuf4s25_1
*I *1598:q[0] O *D tt_rom
*CAP
1 *1532:A 5.92644e-05
2 *1533:A 0.000263139
3 *1598:q[0] 0.00302058
4 *570:57 0.00512779
5 *570:37 0.00782597
6 *570:37 *573:25 5.03719e-05
7 *570:37 *573:41 0.000680134
8 *570:57 *1598:addr[0] 0
9 *570:57 *1598:addr[5] 0
10 *570:57 *571:31 0.00128171
11 *570:57 *571:53 0.00383923
12 *570:57 *572:27 9.61939e-05
13 *570:57 *572:49 0
14 *570:57 *573:41 0.00025676
15 *570:57 *579:87 0.000342485
16 *570:57 *588:84 0.000532765
17 *1353:A *1533:A 0
18 *1353:B *1533:A 2.8266e-06
19 *1367:B *1533:A 0.000282399
20 *1368:B1 *1533:A 0.000109211
21 *374:27 *1533:A 0.000137983
22 *514:23 *1533:A 2.26327e-05
23 *520:10 *1532:A 7.62417e-05
24 *521:12 *1533:A 0.000120303
25 *528:114 *570:57 3.15535e-05
*RES
1 *1598:q[0] *570:37 41.0476 
2 *570:37 *570:57 48.8427 
3 *570:57 *1533:A 20.2911 
4 *570:57 *1532:A 15.1571 
*END

*D_NET *571 0.0269095
*CONN
*I *1531:A I *D sky130_fd_sc_hd__clkdlybuf4s25_1
*I *1530:A I *D sky130_fd_sc_hd__clkdlybuf4s25_1
*I *1598:q[1] O *D tt_rom
*CAP
1 *1531:A 0.000342911
2 *1530:A 0
3 *1598:q[1] 0.00133731
4 *571:55 0.000342911
5 *571:53 0.00463492
6 *571:31 0.00549276
7 *571:19 0.00219516
8 *1531:A *573:41 0.000196916
9 *571:19 *572:27 0.000336092
10 *571:31 *572:27 0.00243301
11 *571:31 *573:25 0.00215418
12 *571:53 *1598:addr[5] 0.000314405
13 *1341:B *571:53 4.32957e-05
14 *1346:B *571:53 0
15 *1366:A *571:53 1.49712e-05
16 *1369:A1 *1531:A 0.000101596
17 *1370:A2 *1531:A 0.000183015
18 *1378:A2 *571:53 0.000191056
19 *1379:B *571:53 8.39471e-05
20 *1385:A1 *571:53 0.000181321
21 *1385:A2 *571:53 0.000180701
22 *1389:A0 *571:53 0.000134471
23 *1390:B *571:53 2.97829e-05
24 *1485:SET_B *571:53 0.000100119
25 *1594:A *571:53 0.000103749
26 *355:18 *571:53 0.000191196
27 *368:8 *1531:A 7.02611e-05
28 *383:8 *571:53 1.21258e-05
29 *449:34 *571:53 3.10819e-05
30 *518:8 *1531:A 9.46929e-05
31 *518:21 *571:53 4.21078e-05
32 *520:10 *1531:A 7.16452e-05
33 *520:16 *571:53 0.000146852
34 *570:57 *571:31 0.00128171
35 *570:57 *571:53 0.00383923
*RES
1 *1598:q[1] *571:19 39.4062 
2 *571:19 *571:31 44.662 
3 *571:31 *571:53 46.6247 
4 *571:53 *571:55 4.5 
5 *571:55 *1530:A 9.3 
6 *571:55 *1531:A 26.4607 
*END

*D_NET *572 0.0253816
*CONN
*I *1529:A I *D sky130_fd_sc_hd__clkdlybuf4s25_1
*I *1598:q[2] O *D tt_rom
*CAP
1 *1529:A 0.000129271
2 *1598:q[2] 0.00294991
3 *572:73 0.00216612
4 *572:49 0.00600761
5 *572:27 0.00692068
6 *572:27 *573:25 0.000425027
7 *572:49 *1598:addr[0] 0.000556705
8 *572:49 *579:87 0.000315821
9 *1077:A *572:73 2.58821e-05
10 *1101:A1 *572:49 0.000448715
11 *1101:B1 *572:49 1.03859e-05
12 *1108:B *572:73 9.47028e-05
13 *1169:A *572:49 8.40344e-05
14 *1175:B *572:49 0
15 *1184:B *572:49 0.000146382
16 *1187:A2 *572:73 1.48545e-05
17 *1189:A *572:49 0
18 *1346:C *572:49 4.46186e-06
19 *1354:B *572:73 0.000174542
20 *1370:B1 *572:73 0.000172413
21 *1387:A2 *572:73 6.23174e-05
22 *1387:A3 *572:73 7.43219e-05
23 *1389:S *572:73 0.000122935
24 *1390:B *572:73 0.00010326
25 *1395:C *572:73 0.000178847
26 *1396:B1 *1529:A 2.89114e-05
27 *1485:D *572:73 0.00027878
28 *1486:RESET_B *572:73 2.52688e-05
29 *1528:A *572:73 2.89114e-05
30 *136:22 *572:73 5.71472e-05
31 *148:25 *572:49 0
32 *211:16 *572:49 0.000142725
33 *215:24 *572:49 2.19684e-05
34 *354:25 *572:73 0
35 *362:79 *572:73 7.05375e-05
36 *374:44 *572:73 0.000159846
37 *387:12 *572:73 0.000139907
38 *528:114 *572:49 0.000373069
39 *570:57 *572:27 9.61939e-05
40 *570:57 *572:49 0
41 *571:19 *572:27 0.000336092
42 *571:31 *572:27 0.00243301
*RES
1 *1598:q[2] *572:27 47.6078 
2 *572:27 *572:49 44.3769 
3 *572:49 *572:73 48.4643 
4 *572:73 *1529:A 11.4786 
*END

*D_NET *573 0.0162853
*CONN
*I *1525:A I *D sky130_fd_sc_hd__clkdlybuf4s25_1
*I *1526:A I *D sky130_fd_sc_hd__clkdlybuf4s25_1
*I *1598:q[3] O *D tt_rom
*CAP
1 *1525:A 0.000471246
2 *1526:A 0
3 *1598:q[3] 0.000997034
4 *573:41 0.00431284
5 *573:25 0.00483863
6 *573:41 *1598:addr[0] 0.00044383
7 *573:41 *1598:addr[5] 0.000268925
8 *573:41 *586:74 0
9 *1368:A1 *573:41 0.000196413
10 *1368:A2 *1525:A 9.90431e-05
11 *1368:A2 *573:41 0
12 *1368:B1 *1525:A 3.10885e-05
13 *1368:B1 *573:41 0
14 *1369:A1 *573:41 6.2169e-06
15 *1369:A2 *573:41 0.000128664
16 *1374:A *1525:A 0
17 *1374:B *1525:A 2.286e-05
18 *1375:A *1525:A 6.87574e-05
19 *1379:B *1525:A 5.74499e-06
20 *1380:A2 *1525:A 3.69047e-06
21 *1527:A *1525:A 2.26424e-05
22 *1531:A *573:41 0.000196916
23 *354:12 *1525:A 0.000121573
24 *354:25 *1525:A 8.15095e-05
25 *368:8 *1525:A 1.21258e-05
26 *514:23 *1525:A 0.00024818
27 *519:21 *573:41 0.000117196
28 *519:34 *1525:A 0
29 *519:34 *573:41 2.36897e-05
30 *570:37 *573:25 5.03719e-05
31 *570:37 *573:41 0.000680134
32 *570:57 *573:41 0.00025676
33 *571:31 *573:25 0.00215418
34 *572:27 *573:25 0.000425027
*RES
1 *1598:q[3] *573:25 40.3896 
2 *573:25 *573:41 29.6872 
3 *573:41 *1526:A 9.3 
4 *573:41 *1525:A 27.2643 
*END

*D_NET *574 0.00110236
*CONN
*I *1444:GATE I *D sky130_fd_sc_hd__dlclkp_2
*I *1131:Y O *D sky130_fd_sc_hd__inv_2
*CAP
1 *1444:GATE 0.000317925
2 *1131:Y 0.000317925
3 *322:56 *1444:GATE 0.000355002
4 *528:12 *1444:GATE 5.67043e-05
5 *533:54 *1444:GATE 5.48067e-05
*RES
1 *1131:Y *1444:GATE 32.6536 
*END

*D_NET *575 0.0444207
*CONN
*I *1066:A I *D sky130_fd_sc_hd__inv_2
*I *1598:addr[0] I *D tt_rom
*I *1399:C1 I *D sky130_fd_sc_hd__o211a_2
*I *1398:A1 I *D sky130_fd_sc_hd__o21a_2
*I *1599:q[0] O *D incrementer
*CAP
1 *1066:A 0.000107111
2 *1598:addr[0] 0.00505787
3 *1399:C1 7.68589e-05
4 *1398:A1 0.000151653
5 *1599:q[0] 0.00164736
6 *575:45 0.00545075
7 *575:30 0.00252709
8 *575:26 0.00381389
9 *1066:A *1072:A 5.33005e-05
10 *1066:A *590:83 0.000180101
11 *1398:A1 *586:74 0
12 *1399:C1 *597:14 0
13 *1399:C1 *600:27 1.2662e-05
14 *1598:addr[0] *1598:addr[1] 2.05916e-05
15 *1598:addr[0] *1598:addr[2] 0.000550146
16 *1598:addr[0] *1598:addr[4] 0.000183704
17 *1598:addr[0] *1598:addr[5] 0.00144077
18 *1598:addr[0] *579:87 0.000319377
19 *1598:addr[0] *588:84 0.000981188
20 *575:26 *1134:D1 1.01912e-05
21 *575:26 *1602:B 0.00125647
22 *575:26 *579:40 4.79792e-05
23 *575:26 *580:28 0.000169951
24 *575:26 *586:30 2.86392e-05
25 *575:26 *588:22 5.64774e-06
26 *575:26 *590:30 0.00171176
27 *575:26 *590:42 0.000274114
28 *575:26 *590:60 7.99906e-05
29 *575:26 *590:83 0.000195895
30 *575:26 *592:50 4.56038e-05
31 *575:26 *594:34 0.00175708
32 *575:30 *588:26 2.02162e-05
33 *575:30 *588:84 0.000840924
34 *575:30 *592:73 0.00061652
35 *575:30 *593:104 0.000156151
36 *575:45 *588:84 0.000484002
37 *1134:A2 *575:26 0
38 *1165:B1 *1399:C1 5.80706e-06
39 *1242:A2 *1066:A 0
40 *1242:A2 *575:26 0
41 *1335:C *575:30 2.84241e-06
42 *1359:B1 *575:30 0
43 *1397:A1 *1398:A1 0.000144053
44 *1397:A2 *1398:A1 0
45 *1397:A3 *1398:A1 0.000164556
46 *1399:A1 *575:30 1.41637e-05
47 *1400:A1 *1399:C1 5.33433e-05
48 *1432:B1 *575:30 0.00057598
49 *1500:D *1398:A1 2.57126e-05
50 *1522:A *1066:A 5.57927e-05
51 *1598:addr[11] *1598:addr[0] 0.00490417
52 *1599:clk *575:26 0.00126344
53 *1599:inc *575:26 0.000135574
54 *82:20 *1598:addr[0] 0.000707041
55 *125:12 *575:30 0.000117172
56 *125:50 *575:30 0.000365851
57 *125:87 *575:30 0.000798608
58 *130:14 *575:26 2.70689e-05
59 *130:22 *575:26 0
60 *294:22 *1398:A1 3.23785e-05
61 *335:26 *575:30 5.81961e-05
62 *355:18 *1598:addr[0] 0.00064483
63 *415:22 *575:30 0.000226449
64 *420:37 *1598:addr[0] 0.000169615
65 *421:36 *1598:addr[0] 0.000547236
66 *429:50 *575:30 0.000182722
67 *436:23 *575:26 0.000101444
68 *473:28 *575:30 0.000347236
69 *528:30 *1598:addr[0] 0.000524661
70 *528:30 *575:30 0.000127068
71 *528:30 *575:45 0.000423559
72 *528:70 *1598:addr[0] 0.000108085
73 *528:114 *1598:addr[0] 0.000289885
74 *570:57 *1598:addr[0] 0
75 *572:49 *1598:addr[0] 0.000556705
76 *573:41 *1598:addr[0] 0.00044383
*RES
1 *1599:q[0] *575:26 28.226 
2 *575:26 *575:30 10.3033 
3 *575:30 *1398:A1 20.4957 
4 *575:30 *575:45 1.3442 
5 *575:45 *1399:C1 18.7368 
6 *575:45 *1598:addr[0] 36.31 
7 *575:26 *1066:A 16.7375 
*END

*D_NET *576 0.0315698
*CONN
*I *1080:B1 I *D sky130_fd_sc_hd__o21ai_2
*I *1079:A I *D sky130_fd_sc_hd__or3_2
*I *1137:A1 I *D sky130_fd_sc_hd__a21oi_2
*I *1136:A I *D sky130_fd_sc_hd__and3_2
*I *1599:q[10] O *D incrementer
*CAP
1 *1080:B1 0
2 *1079:A 4.8787e-05
3 *1137:A1 2.23854e-05
4 *1136:A 0.000187346
5 *1599:q[10] 0.00081593
6 *576:76 0.00188427
7 *576:52 0.000278443
8 *576:48 0.00411093
9 *576:26 0.00375763
10 *576:24 0.00236682
11 *1136:A *1137:A2 0.000102207
12 *576:24 *577:30 2.74345e-05
13 *576:24 *581:36 0.00110635
14 *576:24 *582:20 0.000885821
15 *576:24 *583:22 7.60616e-05
16 *576:24 *584:46 0.00158123
17 *576:24 *585:30 0.000101375
18 *576:24 *594:34 4.69369e-05
19 *576:26 *582:22 0.00513709
20 *576:26 *583:22 0.000522634
21 *576:48 *1137:B1 1.90936e-05
22 *576:48 *577:70 1.05272e-05
23 *576:48 *578:18 0
24 *576:48 *578:24 0
25 *576:48 *582:22 0.00024339
26 *576:48 *582:42 0.0050635
27 *576:76 *1111:B1 5.52302e-05
28 *576:76 *1137:B1 5.33433e-05
29 *576:76 *1598:addr[4] 0.000145351
30 *1080:A2 *1079:A 6.27131e-05
31 *1080:A2 *576:76 0.000124454
32 *1081:B *1079:A 4.43256e-05
33 *1081:B *576:76 5.71472e-05
34 *1111:A2 *576:76 5.71472e-05
35 *1114:A *576:76 0.000227539
36 *1138:B *1136:A 1.32552e-05
37 *1158:C1 *576:76 0.00101822
38 *1183:A *576:76 5.33005e-05
39 *1183:B *576:76 5.52238e-05
40 *1311:A1 *576:76 1.8461e-05
41 *159:8 *576:76 0.000227163
42 *159:14 *576:76 4.33741e-05
43 *162:10 *576:76 5.62995e-05
44 *445:14 *1079:A 5.52302e-05
45 *522:18 *576:76 0.000197854
46 *528:70 *576:76 0.000498197
47 *528:78 *576:76 0.000109798
*RES
1 *1599:q[10] *576:24 23.5978 
2 *576:24 *576:26 48.1786 
3 *576:26 *576:48 34.4986 
4 *576:48 *576:52 0.964286 
5 *576:52 *1136:A 12.7107 
6 *576:52 *1137:A1 9.72857 
7 *576:48 *576:76 36.3393 
8 *576:76 *1079:A 11.1036 
9 *576:76 *1080:B1 9.3 
*END

*D_NET *577 0.0338719
*CONN
*I *1097:B1 I *D sky130_fd_sc_hd__o21a_2
*I *1098:C I *D sky130_fd_sc_hd__or3_2
*I *1136:B I *D sky130_fd_sc_hd__and3_2
*I *1137:A2 I *D sky130_fd_sc_hd__a21oi_2
*I *1599:q[11] O *D incrementer
*CAP
1 *1097:B1 0
2 *1098:C 6.52883e-05
3 *1136:B 0
4 *1137:A2 9.14603e-05
5 *1599:q[11] 0.0107109
6 *577:70 0.00337854
7 *577:36 0.000112688
8 *577:30 0.0140454
9 *577:30 *578:18 0.000171924
10 *577:30 *579:40 0
11 *577:30 *579:87 0
12 *577:30 *581:36 4.71897e-05
13 *577:30 *583:22 0.00024508
14 *577:30 *587:70 0.00103102
15 *577:30 *592:22 0
16 *577:70 *1598:addr[4] 0
17 *577:70 *579:87 0.00251043
18 *577:70 *582:42 8.22383e-05
19 *577:70 *588:84 0
20 uio_oe[2] *577:30 0
21 uio_oe[3] *577:30 0
22 uio_oe[4] *577:30 0
23 uio_out[2] *577:30 0
24 *1097:A1 *1098:C 1.31571e-05
25 *1125:B *577:36 5.7836e-06
26 *1136:A *1137:A2 0.000102207
27 *1138:B *1137:A2 5.62995e-05
28 *1187:B1 *577:70 0
29 *161:18 *577:70 0.000914027
30 *164:22 *1098:C 0.000126944
31 *525:45 *577:70 0
32 *528:93 *1098:C 8.07313e-05
33 *528:93 *577:70 8.08476e-06
34 *528:104 *1098:C 3.45052e-05
35 *576:24 *577:30 2.74345e-05
36 *576:48 *577:70 1.05272e-05
*RES
1 *1599:q[11] *577:30 43.6614 
2 *577:30 *577:36 8.18679 
3 *577:36 *1137:A2 11.8 
4 *577:36 *1136:B 9.3 
5 *577:30 *577:70 16.9719 
6 *577:70 *1098:C 11.925 
7 *577:70 *1097:B1 9.3 
*END

*D_NET *578 0.034621
*CONN
*I *1136:C I *D sky130_fd_sc_hd__and3_2
*I *1102:B1 I *D sky130_fd_sc_hd__o21ai_2
*I *1103:C I *D sky130_fd_sc_hd__or3_2
*I *1137:B1 I *D sky130_fd_sc_hd__a21oi_2
*I *1599:q[12] O *D incrementer
*CAP
1 *1136:C 0
2 *1102:B1 0.000190088
3 *1103:C 0
4 *1137:B1 0.000164924
5 *1599:q[12] 0.00568222
6 *578:43 0.000299413
7 *578:39 0.00292905
8 *578:24 0.00328874
9 *578:18 0.00598631
10 *578:18 *1598:addr[4] 0.000105933
11 *578:18 *1602:C 0.000136649
12 *578:18 *579:24 0.000897543
13 *578:18 *579:87 0
14 *578:18 *580:53 9.9897e-05
15 *578:18 *581:36 0
16 *578:18 *581:61 0.00300968
17 *578:18 *582:42 0.00053107
18 *578:18 *584:46 0
19 *578:18 *585:44 0.000374866
20 *578:18 *589:14 0.000210142
21 *578:18 *589:130 0.000507274
22 *578:18 *589:146 3.13654e-05
23 *578:18 *593:24 0.0027009
24 *578:39 *1598:addr[4] 0.0024691
25 *1103:A *1102:B1 1.85668e-05
26 *1103:B *1102:B1 0.000121991
27 *1104:A *1102:B1 6.0163e-05
28 *1109:B1 *1102:B1 5.52302e-05
29 *1158:C1 *1137:B1 0
30 *1449:RESET_B *578:18 0.00191317
31 *154:24 *1102:B1 0.000139913
32 *157:16 *1102:B1 4.43256e-05
33 *420:37 *1102:B1 2.22594e-05
34 *420:37 *578:43 6.83971e-05
35 *424:20 *578:39 0.00228291
36 *431:16 *578:18 2.42532e-05
37 *448:59 *1102:B1 1.02504e-05
38 *576:48 *1137:B1 1.90936e-05
39 *576:48 *578:18 0
40 *576:48 *578:24 0
41 *576:76 *1137:B1 5.33433e-05
42 *577:30 *578:18 0.000171924
*RES
1 *1599:q[12] *578:18 34.1296 
2 *578:18 *578:24 9.25 
3 *578:24 *1137:B1 21.1929 
4 *578:24 *578:39 54.3393 
5 *578:39 *578:43 6.44643 
6 *578:43 *1103:C 13.8 
7 *578:43 *1102:B1 18.675 
8 *578:18 *1136:C 13.8 
*END

*D_NET *579 0.0473255
*CONN
*I *1107:C I *D sky130_fd_sc_hd__or3_2
*I *1106:B1 I *D sky130_fd_sc_hd__o21ai_2
*I *1125:C_N I *D sky130_fd_sc_hd__or4bb_2
*I *1599:q[13] O *D incrementer
*CAP
1 *1107:C 0.000262895
2 *1106:B1 0
3 *1125:C_N 0.000113748
4 *1599:q[13] 0.00358859
5 *579:87 0.00447218
6 *579:56 0.00567359
7 *579:40 0.00645134
8 *579:24 0.00868937
9 *1125:C_N *1125:D_N 7.77584e-05
10 *1125:C_N *580:88 0.000104044
11 *1125:C_N *581:100 0
12 *1125:C_N *585:94 0.00010096
13 *579:24 *580:28 4.32036e-05
14 *579:24 *581:61 0
15 *579:24 *584:46 0.00164612
16 *579:24 *584:74 3.79145e-05
17 *579:24 *586:30 2.82126e-05
18 *579:24 *589:14 0.00103788
19 *579:24 *593:24 0.0020818
20 *579:40 *587:18 9.77749e-05
21 *579:40 *590:30 0.000584603
22 *579:40 *592:22 0.000584516
23 *579:40 *594:34 5.10869e-05
24 *579:56 *1430:B 0.000142001
25 *579:56 *582:104 0.000164743
26 *579:56 *582:110 0.000246079
27 *579:56 *586:47 9.67644e-05
28 *579:56 *586:49 3.81995e-05
29 *579:87 *1304:A 1.31821e-05
30 *579:87 *1598:addr[4] 0
31 *579:87 *580:53 2.30813e-05
32 *579:87 *583:37 8.67608e-05
33 *579:87 *583:67 0.000372544
34 *579:87 *588:84 0
35 uio_oe[0] *579:40 0
36 uio_oe[1] *579:40 0
37 uio_oe[2] *579:40 3.94839e-05
38 uio_oe[3] *579:40 4.23968e-05
39 uio_oe[4] *579:40 4.42675e-05
40 uio_oe[5] *579:40 4.239e-05
41 uio_oe[6] *579:40 0.000501644
42 uio_oe[7] *579:40 2.24813e-05
43 uio_out[4] *579:40 0.000308557
44 uio_out[6] *579:40 3.6994e-05
45 uio_out[7] *579:40 0
46 *1106:A2 *579:87 6.45178e-05
47 *1107:A *579:87 1.59373e-05
48 *1114:A *579:87 0.000141882
49 *1115:A1 *1107:C 2.39664e-05
50 *1115:B1_N *1107:C 0.000237372
51 *1116:A3 *579:87 4.32309e-05
52 *1116:B1 *1107:C 5.52302e-05
53 *1118:A2 *579:87 0.000108754
54 *1130:B *579:56 0
55 *1153:B *579:56 0.000288954
56 *1154:B *579:56 6.8646e-06
57 *1156:B *579:56 4.66203e-05
58 *1172:B *579:56 0
59 *1183:B *579:87 0.00011307
60 *1217:B *579:24 5.99352e-05
61 *1245:A *579:40 0
62 *1263:B *579:56 3.34295e-05
63 *1265:A1 *579:40 9.80173e-05
64 *1266:A1 *579:40 0.000104974
65 *1266:B1 *579:40 0.00012401
66 *1270:B *579:56 0
67 *1276:A *579:56 7.83659e-05
68 *1359:B1 *579:56 0.000190334
69 *1360:C *579:56 0
70 *1450:RESET_B *1125:C_N 2.8354e-05
71 *1543:A *1125:C_N 5.46551e-05
72 *1543:A *579:56 0.000129478
73 *1598:addr[0] *579:87 0.000319377
74 *155:6 *1107:C 8.74317e-05
75 *155:6 *579:87 3.08664e-05
76 *157:12 *1107:C 5.31122e-05
77 *157:49 *579:87 0.000121409
78 *161:18 *579:87 0.000297493
79 *169:16 *579:87 0.000132088
80 *195:8 *579:56 0.000280121
81 *198:12 *579:56 0.00012401
82 *259:23 *579:56 0.000329486
83 *273:10 *579:40 6.77822e-05
84 *429:42 *579:56 1.98729e-05
85 *448:59 *579:87 0
86 *468:24 *579:40 7.49387e-06
87 *468:24 *579:56 0.000142617
88 *471:10 *579:40 0
89 *471:16 *579:40 0
90 *471:22 *579:56 9.84498e-05
91 *522:32 *579:87 1.34792e-05
92 *525:45 *579:87 0
93 *526:139 *579:40 3.14078e-05
94 *528:114 *579:87 0.00105761
95 *570:57 *579:87 0.000342485
96 *572:49 *579:87 0.000315821
97 *575:26 *579:40 4.79792e-05
98 *577:30 *579:40 0
99 *577:30 *579:87 0
100 *577:70 *579:87 0.00251043
101 *578:18 *579:24 0.000897543
102 *578:18 *579:87 0
*RES
1 *1599:q[13] *579:24 44.9003 
2 *579:24 *579:40 34.4342 
3 *579:40 *579:56 39.2768 
4 *579:56 *1125:C_N 17.1482 
5 *579:56 *579:87 34.315 
6 *579:87 *1106:B1 9.3 
7 *579:87 *1107:C 23.4071 
*END

*D_NET *580 0.0294437
*CONN
*I *1112:C I *D sky130_fd_sc_hd__nor3_2
*I *1111:B1 I *D sky130_fd_sc_hd__o21a_2
*I *1125:D_N I *D sky130_fd_sc_hd__or4bb_2
*I *1602:D I *D sky130_fd_sc_hd__nand4_1
*I *1599:q[14] O *D incrementer
*CAP
1 *1112:C 4.81404e-05
2 *1111:B1 0.000132622
3 *1125:D_N 3.93402e-05
4 *1602:D 0.000138713
5 *1599:q[14] 0.00242081
6 *580:94 0.000330946
7 *580:88 0.00136045
8 *580:53 0.00442781
9 *580:28 0.00573773
10 *1125:D_N *585:94 2.44318e-05
11 *1602:D *1601:B 2.70794e-05
12 *1602:D *1602:B 0.000441688
13 *1602:D *1602:C 0.000400395
14 *1602:D *585:44 3.14078e-05
15 *580:28 *1599:rst_n 3.48416e-06
16 *580:28 *1602:C 1.52978e-05
17 *580:28 *581:36 0.000335927
18 *580:28 *584:46 1.31511e-05
19 *580:28 *585:30 0.00296337
20 *580:28 *586:30 5.89278e-05
21 *580:28 *588:22 0.000330666
22 *580:28 *594:34 0.000474284
23 *580:53 *1322:S1 0.000178568
24 *580:53 *1602:B 0.000139491
25 *580:53 *581:61 0.000231957
26 *580:53 *581:100 0
27 *580:53 *583:37 0
28 *580:53 *584:74 0.00035855
29 *580:53 *585:44 0.000623126
30 *580:53 *591:26 0.00038737
31 *580:88 *1157:A 0
32 *580:88 *581:100 0.000271526
33 *580:88 *585:94 0
34 *1111:A1 *1111:B1 0
35 *1111:A1 *1112:C 0.000136432
36 *1111:A2 *1111:B1 4.89167e-05
37 *1112:B *1112:C 5.33005e-05
38 *1118:A2 *580:94 3.45793e-05
39 *1118:B1 *1111:B1 0.000120506
40 *1118:B1 *580:94 0.000237939
41 *1125:C_N *1125:D_N 7.77584e-05
42 *1125:C_N *580:88 0.000104044
43 *1130:B *580:88 0
44 *1157:B *580:88 0.000139832
45 *1159:A *580:88 1.98839e-05
46 *1161:A_N *580:88 6.71854e-05
47 *1161:B *580:88 4.1331e-06
48 *1162:A3 *580:88 0.000415432
49 *1220:A *580:53 0.000111204
50 *1305:A *580:88 5.31158e-05
51 *1307:B *580:88 0.00018372
52 *1307:C *580:88 3.9846e-05
53 *1313:A1 *580:88 0.000315711
54 *1322:A1 *580:53 0.000215346
55 *1357:B *580:88 0.000315165
56 *1449:RESET_B *580:53 0.000208168
57 *1450:RESET_B *1125:D_N 6.80745e-05
58 *1450:RESET_B *580:88 1.90936e-05
59 *1599:clk *580:28 7.79585e-05
60 *1599:inc *580:28 0.000180158
61 *161:59 *580:94 9.41642e-05
62 *166:8 *580:88 0.000221641
63 *169:16 *580:88 0.000784209
64 *169:16 *580:94 0.000111508
65 *308:12 *580:88 0.000230155
66 *431:16 *580:53 0.000832796
67 *431:18 *580:53 0.00114975
68 *431:28 *580:53 0.000204266
69 *450:50 *1112:C 4.2268e-05
70 *522:32 *1111:B1 5.1588e-05
71 *522:32 *580:94 8.21535e-05
72 *527:66 *580:88 5.31158e-05
73 *575:26 *580:28 0.000169951
74 *576:76 *1111:B1 5.52302e-05
75 *578:18 *580:53 9.9897e-05
76 *579:24 *580:28 4.32036e-05
77 *579:87 *580:53 2.30813e-05
*RES
1 *1599:q[14] *580:28 37.0977 
2 *580:28 *1602:D 14.7821 
3 *580:28 *580:53 31.3881 
4 *580:53 *1125:D_N 15.0232 
5 *580:53 *580:88 49.9732 
6 *580:88 *580:94 8.82143 
7 *580:94 *1111:B1 16.8893 
8 *580:94 *1112:C 15.1571 
*END

*D_NET *581 0.0291617
*CONN
*I *1125:A I *D sky130_fd_sc_hd__or4bb_2
*I *1157:A I *D sky130_fd_sc_hd__or2_2
*I *1158:B2 I *D sky130_fd_sc_hd__a221o_2
*I *1120:C_N I *D sky130_fd_sc_hd__or3b_2
*I *1121:A_N I *D sky130_fd_sc_hd__nand2b_2
*I *1126:A1 I *D sky130_fd_sc_hd__a211o_2
*I *1602:C I *D sky130_fd_sc_hd__nand4_1
*I *1599:q[15] O *D incrementer
*CAP
1 *1125:A 0
2 *1157:A 0.000116962
3 *1158:B2 1.76903e-05
4 *1120:C_N 0.000117022
5 *1121:A_N 0.000103723
6 *1126:A1 0.000365537
7 *1602:C 0.000283812
8 *1599:q[15] 0.00175145
9 *581:116 0.000307426
10 *581:112 0.000244905
11 *581:108 0.000470266
12 *581:100 0.00131684
13 *581:61 0.00302028
14 *581:36 0.00358594
15 *1126:A1 *1126:A2 1.90936e-05
16 *1126:A1 *1126:C1 0
17 *1157:A *585:94 7.10743e-05
18 *1602:C *1601:B 1.32056e-05
19 *1602:C *1602:B 0
20 *1602:C *585:44 0.000148771
21 *1602:C *593:24 2.93333e-05
22 *581:36 *1599:rst_n 7.60572e-05
23 *581:36 *582:20 7.40416e-05
24 *581:36 *584:46 7.64757e-05
25 *581:36 *585:30 0.0015902
26 *581:36 *587:18 0.000262454
27 *581:36 *588:22 0.000126821
28 *581:36 *590:30 0.000890428
29 *581:36 *591:22 6.75134e-05
30 *581:36 *592:22 0.000333485
31 *581:36 *594:34 0.000687408
32 *581:61 *583:22 0.00115016
33 *581:61 *584:74 0.000672931
34 *581:61 *593:24 9.97767e-06
35 *581:100 *583:22 0.000250533
36 *581:100 *583:37 0.000180292
37 *581:108 *585:94 0.000458035
38 *581:108 *597:14 5.52238e-05
39 *581:112 *585:94 9.90367e-05
40 *581:112 *597:14 9.31893e-05
41 *1120:B *1120:C_N 3.52966e-05
42 *1121:B *1121:A_N 5.41851e-05
43 *1125:C_N *581:100 0
44 *1130:A_N *1126:A1 4.82947e-05
45 *1130:B *581:100 4.84319e-05
46 *1135:A *1126:A1 0
47 *1138:A *581:108 0.000150539
48 *1138:B *1157:A 0
49 *1138:B *581:100 0
50 *1138:C *581:108 5.52238e-05
51 *1154:B *581:100 4.88637e-05
52 *1157:B *1157:A 5.52238e-05
53 *1158:A2 *1120:C_N 6.90625e-05
54 *1158:B1 *1120:C_N 0.000140933
55 *1158:B1 *1158:B2 1.85443e-05
56 *1158:B1 *581:116 6.02722e-05
57 *1158:C1 *1121:A_N 0
58 *1161:A_N *581:100 0.000388604
59 *1162:A3 *1157:A 5.52238e-05
60 *1214:A *1602:C 4.1639e-05
61 *1230:B *581:100 5.52302e-05
62 *1322:A1 *581:61 2.89452e-05
63 *1449:RESET_B *581:61 0.00072484
64 *1450:RESET_B *581:100 0
65 *1453:SET_B *1602:C 6.58704e-05
66 *1456:CLK *1126:A1 0
67 *1459:RESET_B *581:100 5.33402e-05
68 *1599:clk *581:36 0.000436787
69 *1599:inc *1602:C 0
70 *1599:inc *581:36 3.81939e-05
71 *1602:D *1602:C 0.000400395
72 *167:12 *1121:A_N 0
73 *179:18 *1126:A1 9.83442e-05
74 *196:6 *581:100 0.00014183
75 *200:12 *1158:B2 7.70134e-06
76 *200:12 *581:112 5.91367e-05
77 *200:12 *581:116 2.23322e-05
78 *320:24 *1126:A1 0.000170301
79 *427:14 *581:100 0
80 *429:16 *581:100 0.000944694
81 *430:20 *581:100 0.000261246
82 *530:96 *1602:C 8.99562e-05
83 *576:24 *581:36 0.00110635
84 *577:30 *581:36 4.71897e-05
85 *578:18 *1602:C 0.000136649
86 *578:18 *581:36 0
87 *578:18 *581:61 0.00300968
88 *579:24 *581:61 0
89 *580:28 *1602:C 1.52978e-05
90 *580:28 *581:36 0.000335927
91 *580:53 *581:61 0.000231957
92 *580:53 *581:100 0
93 *580:88 *1157:A 0
94 *580:88 *581:100 0.000271526
*RES
1 *1599:q[15] *581:36 33.8575 
2 *581:36 *1602:C 23.964 
3 *581:36 *581:61 13.7901 
4 *581:61 *1126:A1 24.3796 
5 *581:61 *581:100 38.6502 
6 *581:100 *581:108 6.44643 
7 *581:108 *581:112 3.83929 
8 *581:112 *581:116 1.78571 
9 *581:116 *1121:A_N 20.55 
10 *581:116 *1120:C_N 12.0321 
11 *581:112 *1158:B2 9.85804 
12 *581:108 *1157:A 20.7821 
13 *581:100 *1125:A 9.3 
*END

*D_NET *582 0.0465642
*CONN
*I *1155:A I *D sky130_fd_sc_hd__or2_2
*I *1307:A I *D sky130_fd_sc_hd__and3_2
*I *1308:B1 I *D sky130_fd_sc_hd__a21oi_2
*I *1126:A2 I *D sky130_fd_sc_hd__a211o_2
*I *1602:B I *D sky130_fd_sc_hd__nand4_1
*I *1154:A I *D sky130_fd_sc_hd__and2_2
*I *1124:A I *D sky130_fd_sc_hd__nand2_2
*I *1599:q[16] O *D incrementer
*CAP
1 *1155:A 0
2 *1307:A 0.000158036
3 *1308:B1 9.3751e-05
4 *1126:A2 3.80175e-05
5 *1602:B 0.00300551
6 *1154:A 0
7 *1124:A 0.000116131
8 *1599:q[16] 0.000610938
9 *582:110 0.00140465
10 *582:104 0.00141511
11 *582:68 0.00368008
12 *582:66 0.0011915
13 *582:55 0.000533538
14 *582:42 0.00258584
15 *582:22 0.00417335
16 *582:20 0.00255541
17 *1126:A2 *1126:C1 8.05484e-06
18 *1126:A2 *584:82 5.37741e-06
19 *1602:B *1329:S0 0.000256398
20 *1602:B *583:22 0
21 *1602:B *584:74 0.00012684
22 *1602:B *588:22 0.000174876
23 *1602:B *590:30 0.000434133
24 *1602:B *593:24 0.000204906
25 *1602:B *593:59 9.77021e-06
26 *1602:B *594:46 2.79405e-05
27 *582:20 *583:22 0.000358242
28 *582:22 *583:22 0.00104527
29 *582:42 *1124:B 9.71118e-06
30 *582:42 *1598:addr[4] 0.00130824
31 *582:42 *589:146 0
32 *582:55 *1124:B 3.96549e-05
33 *582:66 *589:146 0
34 *582:68 *583:22 0
35 *582:68 *583:37 0
36 *582:68 *584:103 0.00130215
37 *582:104 *584:103 0.000429508
38 *1119:A *1307:A 0.00014285
39 *1120:B *1307:A 6.87975e-06
40 *1126:A1 *1126:A2 1.90936e-05
41 *1154:B *582:55 0
42 *1154:B *582:66 0
43 *1156:B *582:104 7.72906e-05
44 *1156:B *582:110 0.000244365
45 *1168:A *582:110 0.000615963
46 *1168:B *1307:A 1.18451e-05
47 *1168:B *1308:B1 2.95726e-05
48 *1168:B *582:110 2.88018e-06
49 *1168:C *582:110 3.98559e-05
50 *1234:A *582:66 0
51 *1306:A *582:110 7.48301e-06
52 *1306:B *582:110 1.56e-05
53 *1307:B *1307:A 7.83587e-05
54 *1307:C *1307:A 0.000212014
55 *1307:C *582:110 1.98839e-05
56 *1308:A1 *1308:B1 9.90367e-05
57 *1310:C *1308:B1 4.26026e-05
58 *1329:A0 *1602:B 0.000125724
59 *1357:B *582:110 0.000651102
60 *1359:B1 *1602:B 0.00011033
61 *1449:RESET_B *582:55 2.22424e-05
62 *1450:D *582:55 0.000146075
63 *1453:SET_B *1602:B 0
64 *1454:RESET_B *582:55 0
65 *1454:RESET_B *582:66 0
66 *1458:RESET_B *1602:B 0
67 *1543:A *582:55 0
68 *1599:clk *1602:B 0.000720485
69 *1599:inc *1602:B 7.83659e-05
70 *1602:C *1602:B 0
71 *1602:D *1602:B 0.000441688
72 *169:8 *1307:A 1.27126e-05
73 *209:16 *582:104 3.85835e-05
74 *211:48 *582:68 0.000362621
75 *211:48 *582:104 0.000216577
76 *213:26 *582:66 9.99386e-05
77 *307:6 *582:110 2.59355e-05
78 *320:24 *1126:A2 1.0945e-05
79 *429:16 *582:66 0.000220306
80 *429:42 *582:66 0.000283001
81 *431:16 *582:55 6.52967e-05
82 *437:10 *1602:B 0.000139886
83 *440:26 *1602:B 0
84 *575:26 *1602:B 0.00125647
85 *576:24 *582:20 0.000885821
86 *576:26 *582:22 0.00513709
87 *576:48 *582:22 0.00024339
88 *576:48 *582:42 0.0050635
89 *577:70 *582:42 8.22383e-05
90 *578:18 *582:42 0.00053107
91 *579:56 *582:104 0.000164743
92 *579:56 *582:110 0.000246079
93 *580:53 *1602:B 0.000139491
94 *581:36 *582:20 7.40416e-05
*RES
1 *1599:q[16] *582:20 20.7308 
2 *582:20 *582:22 55.5714 
3 *582:22 *582:42 32.491 
4 *582:42 *1124:A 15.5857 
5 *582:42 *582:55 4.98214 
6 *582:55 *1154:A 13.8 
7 *582:55 *582:66 10.3654 
8 *582:66 *582:68 2.209 
9 *582:68 *1602:B 42.5651 
10 *582:68 *1126:A2 17.7904 
11 *582:66 *582:104 6.50739 
12 *582:104 *582:110 22.5714 
13 *582:110 *1308:B1 11.8 
14 *582:110 *1307:A 22.4429 
15 *582:104 *1155:A 13.8 
*END

*D_NET *583 0.026412
*CONN
*I *1304:A I *D sky130_fd_sc_hd__nor3_2
*I *1309:B1 I *D sky130_fd_sc_hd__o21a_2
*I *1151:A I *D sky130_fd_sc_hd__or2_2
*I *1160:A I *D sky130_fd_sc_hd__nand2_2
*I *1126:C1 I *D sky130_fd_sc_hd__a211o_2
*I *1599:q[17] O *D incrementer
*CAP
1 *1304:A 6.61092e-05
2 *1309:B1 0.000212782
3 *1151:A 0.000192713
4 *1160:A 4.29865e-05
5 *1126:C1 0.000271091
6 *1599:q[17] 0.00571711
7 *583:67 0.00189572
8 *583:41 0.000295841
9 *583:37 0.00301717
10 *583:22 0.0073284
11 *1126:C1 *584:82 8.6229e-06
12 *583:22 *584:46 1.04727e-05
13 *1126:A1 *1126:C1 0
14 *1126:A2 *1126:C1 8.05484e-06
15 *1130:B *1151:A 0.000204367
16 *1130:B *583:41 0.00013663
17 *1150:B *583:37 4.36829e-05
18 *1151:B *1151:A 0.000243042
19 *1161:B *1160:A 1.73088e-05
20 *1161:B *583:41 1.12577e-05
21 *1171:C *1309:B1 0.000126405
22 *1234:B *1126:C1 0.000101239
23 *1304:B *1309:B1 0
24 *1310:D *1304:A 1.94945e-05
25 *1310:D *1309:B1 0.000107586
26 *1322:A1 *583:22 1.15117e-05
27 *1456:RESET_B *1126:C1 0.000117189
28 *1459:RESET_B *1126:C1 4.28365e-05
29 *1602:B *583:22 0
30 *176:24 *1151:A 8.85631e-05
31 *176:24 *1309:B1 0.000162726
32 *192:6 *1160:A 5.52302e-05
33 *193:8 *1151:A 2.89114e-05
34 *204:10 *1151:A 8.44271e-06
35 *204:10 *583:41 4.84319e-05
36 *211:48 *583:37 0.000201022
37 *213:26 *1160:A 1.39726e-05
38 *213:26 *583:37 4.80441e-05
39 *320:50 *1160:A 9.71197e-05
40 *451:48 *1304:A 0.00011802
41 *451:48 *583:67 0.000120909
42 *525:45 *583:67 0.000302741
43 *526:68 *583:37 5.02092e-05
44 *526:68 *583:67 0.00031525
45 *527:60 *1309:B1 5.42764e-05
46 *527:66 *1309:B1 0.000147807
47 *576:24 *583:22 7.60616e-05
48 *576:26 *583:22 0.000522634
49 *577:30 *583:22 0.00024508
50 *579:87 *1304:A 1.31821e-05
51 *579:87 *583:37 8.67608e-05
52 *579:87 *583:67 0.000372544
53 *580:53 *583:37 0
54 *581:61 *583:22 0.00115016
55 *581:100 *583:22 0.000250533
56 *581:100 *583:37 0.000180292
57 *582:20 *583:22 0.000358242
58 *582:22 *583:22 0.00104527
59 *582:68 *583:22 0
60 *582:68 *583:37 0
*RES
1 *1599:q[17] *583:22 29.699 
2 *583:22 *1126:C1 22.5761 
3 *583:22 *583:37 3.36207 
4 *583:37 *583:41 5.20464 
5 *583:41 *1160:A 15.175 
6 *583:41 *1151:A 18.8536 
7 *583:37 *583:67 3.65033 
8 *583:67 *1309:B1 22.1654 
9 *583:67 *1304:A 17.6779 
*END

*D_NET *584 0.0346639
*CONN
*I *1164:A I *D sky130_fd_sc_hd__and3_2
*I *1302:B2 I *D sky130_fd_sc_hd__a22o_2
*I *1146:A I *D sky130_fd_sc_hd__or2_2
*I *1315:B1 I *D sky130_fd_sc_hd__o2bb2a_2
*I *1147:A I *D sky130_fd_sc_hd__nand2_2
*I *1126:B1 I *D sky130_fd_sc_hd__a211o_2
*I *1599:q[18] O *D incrementer
*CAP
1 *1164:A 0
2 *1302:B2 0.000132668
3 *1146:A 0
4 *1315:B1 0.000190004
5 *1147:A 0
6 *1126:B1 1.71187e-05
7 *1599:q[18] 0.0032166
8 *584:137 0.000263192
9 *584:116 0.000405748
10 *584:109 0.000259373
11 *584:103 0.00202803
12 *584:82 0.00213296
13 *584:74 0.00328872
14 *584:46 0.00624335
15 *584:46 *1599:rst_n 5.21955e-05
16 *584:46 *585:30 0.00226355
17 *584:46 *586:30 0.000321245
18 *584:46 *588:22 0.000117032
19 *584:46 *592:22 8.36973e-05
20 *584:46 *593:24 0.000269701
21 *584:46 *594:34 0.000383352
22 *584:74 *1129:A1 9.91224e-05
23 *584:74 *588:22 0.000530125
24 *584:74 *590:36 0.000230451
25 *584:74 *591:22 2.07552e-05
26 *584:74 *591:26 9.94334e-06
27 *584:74 *592:22 0
28 *584:74 *592:73 0
29 *584:74 *593:59 5.0234e-05
30 *584:74 *593:68 0.000139202
31 *584:74 *594:34 4.31206e-05
32 *584:74 *594:46 6.46063e-05
33 *584:103 *586:74 0.000767078
34 *1126:A2 *584:82 5.37741e-06
35 *1126:C1 *584:82 8.6229e-06
36 *1130:A_N *1126:B1 5.33005e-05
37 *1130:A_N *584:82 0.000313192
38 *1148:C *584:116 5.65955e-05
39 *1153:B *584:103 1.01912e-05
40 *1164:B *584:103 6.27272e-06
41 *1164:B *584:109 2.89016e-05
42 *1164:C *584:109 0.000130942
43 *1231:A *584:74 5.52302e-05
44 *1234:B *584:82 9.20464e-06
45 *1302:B1 *1302:B2 5.38444e-06
46 *1315:A1_N *1315:B1 3.68783e-05
47 *1315:A2_N *1315:B1 6.15352e-05
48 *1316:A1 *1315:B1 1.10868e-05
49 *1316:A1 *584:137 3.27526e-05
50 *1316:B1 *1315:B1 0.000140809
51 *1318:B *584:74 7.17235e-05
52 *1334:A2 *584:74 0.000125827
53 *1335:C *584:103 0
54 *1359:B1 *584:74 0.00106895
55 *1359:B1 *584:103 0.000169794
56 *1599:clk *584:46 4.73722e-05
57 *1599:clk *584:74 0.000106493
58 *1599:inc *584:46 2.09897e-05
59 *1599:inc *584:74 9.76922e-05
60 *1602:B *584:74 0.00012684
61 *133:20 *584:74 9.02133e-05
62 *179:18 *1126:B1 2.84026e-05
63 *187:31 *1302:B2 0.000218124
64 *187:31 *584:137 5.49544e-05
65 *187:39 *584:137 0
66 *206:12 *584:109 3.48705e-05
67 *211:48 *1315:B1 0.000603438
68 *211:48 *584:103 0.000279645
69 *211:48 *584:109 9.7659e-05
70 *211:48 *584:116 7.16426e-05
71 *317:14 *1315:B1 5.49544e-05
72 *317:14 *584:137 5.70016e-05
73 *319:12 *584:74 1.98839e-05
74 *320:24 *584:74 7.30744e-05
75 *335:26 *584:74 0.00042641
76 *576:24 *584:46 0.00158123
77 *578:18 *584:46 0
78 *579:24 *584:46 0.00164612
79 *579:24 *584:74 3.79145e-05
80 *580:28 *584:46 1.31511e-05
81 *580:53 *584:74 0.00035855
82 *581:36 *584:46 7.64757e-05
83 *581:61 *584:74 0.000672931
84 *582:68 *584:103 0.00130215
85 *582:104 *584:103 0.000429508
86 *583:22 *584:46 1.04727e-05
*RES
1 *1599:q[18] *584:46 48.1354 
2 *584:46 *584:74 48.258 
3 *584:74 *584:82 12.7321 
4 *584:82 *1126:B1 14.3357 
5 *584:82 *584:103 16.8326 
6 *584:103 *584:109 4.57143 
7 *584:109 *1147:A 9.3 
8 *584:109 *584:116 2.17857 
9 *584:116 *1315:B1 16.8714 
10 *584:116 *584:137 11.4821 
11 *584:137 *1146:A 9.3 
12 *584:137 *1302:B2 11.9071 
13 *584:103 *1164:A 9.3 
*END

*D_NET *585 0.034315
*CONN
*I *1602:A I *D sky130_fd_sc_hd__nand4_1
*I *1143:A I *D sky130_fd_sc_hd__xor2_2
*I *1165:A1 I *D sky130_fd_sc_hd__a21o_2
*I *1302:A1 I *D sky130_fd_sc_hd__a22o_2
*I *1320:A1 I *D sky130_fd_sc_hd__o21ba_2
*I *1124:B I *D sky130_fd_sc_hd__nand2_2
*I *1129:B2 I *D sky130_fd_sc_hd__a32o_2
*I *1599:q[19] O *D incrementer
*CAP
1 *1602:A 0
2 *1143:A 2.9599e-05
3 *1165:A1 8.57284e-05
4 *1302:A1 0.00011723
5 *1320:A1 0.000107644
6 *1124:B 0.00013592
7 *1129:B2 0.000198409
8 *1599:q[19] 0.00189878
9 *585:106 0.000880741
10 *585:96 0.000741596
11 *585:94 0.00142415
12 *585:69 0.00310023
13 *585:46 0.00240627
14 *585:44 0.00247677
15 *585:30 0.00373744
16 *1129:B2 *1129:A2 5.33005e-05
17 *585:30 *1599:rst_n 7.60572e-05
18 *585:30 *586:30 0.000315747
19 *585:30 *594:34 4.43639e-05
20 *585:44 *1322:S1 1.90936e-05
21 *585:44 *1601:B 1.17091e-05
22 *585:69 *589:146 0.000569115
23 *585:94 *586:74 0.000125883
24 *585:94 *597:14 0.000302315
25 *1125:C_N *585:94 0.00010096
26 *1125:D_N *585:94 2.44318e-05
27 *1129:A3 *1129:B2 1.30583e-05
28 *1130:A_N *1129:B2 5.33005e-05
29 *1138:B *585:94 0
30 *1138:C *585:94 6.15535e-05
31 *1157:A *585:94 7.10743e-05
32 *1158:C1 *585:94 0
33 *1161:B *585:94 0
34 *1162:A2 *585:94 0
35 *1165:A2 *1143:A 9.42929e-05
36 *1165:A2 *1165:A1 0.000118618
37 *1165:B1 *1165:A1 5.79737e-05
38 *1165:B1 *585:106 6.01416e-05
39 *1167:A *585:94 0
40 *1168:A *585:94 0
41 *1168:D *585:94 0.000193429
42 *1171:B *585:94 0.000148707
43 *1204:A *585:46 0.000729284
44 *1214:A *585:44 0.00035873
45 *1221:A *585:44 8.84922e-05
46 *1224:A *585:44 0.000481792
47 *1225:B *585:44 0
48 *1231:B *1129:B2 0
49 *1234:A *585:69 5.78972e-05
50 *1302:A2 *1302:A1 5.58941e-05
51 *1327:C *1129:B2 0
52 *1355:A2 *585:106 0.000143865
53 *1356:A1 *585:106 0.000232399
54 *1356:S *585:94 0.00016959
55 *1357:B *585:94 0
56 *1449:RESET_B *585:44 0.000109469
57 *1450:D *585:69 0.000114577
58 *1450:RESET_B *585:94 6.17899e-05
59 *1454:RESET_B *585:69 0.000451714
60 *1456:CLK *1129:B2 3.17163e-05
61 *1456:D *1129:B2 3.27526e-05
62 *1463:D *585:44 0
63 *1543:A *1124:B 5.03894e-05
64 *1565:A *585:30 1.00332e-05
65 *1599:clk *585:30 0.000215689
66 *1602:C *585:44 0.000148771
67 *1602:D *585:44 3.14078e-05
68 *179:18 *1129:B2 5.15925e-05
69 *185:8 *585:106 0
70 *187:31 *1302:A1 0.000172336
71 *187:31 *585:106 0.000151422
72 *187:39 *585:106 9.49241e-05
73 *188:6 *585:106 0.000313647
74 *190:12 *585:106 1.84708e-05
75 *200:12 *585:94 0.000120697
76 *294:22 *1143:A 3.40725e-05
77 *294:22 *585:94 0.000104534
78 *317:14 *1320:A1 4.16936e-05
79 *320:24 *1129:B2 0
80 *320:24 *585:69 0.000656885
81 *362:14 *1143:A 0.000174232
82 *362:14 *585:94 0.000307349
83 *430:12 *585:69 1.56051e-05
84 *430:12 *585:94 2.85276e-05
85 *434:16 *585:44 3.38136e-05
86 *442:6 *585:46 1.20814e-05
87 *442:6 *585:69 2.82885e-05
88 *576:24 *585:30 0.000101375
89 *578:18 *585:44 0.000374866
90 *580:28 *585:30 0.00296337
91 *580:53 *585:44 0.000623126
92 *580:88 *585:94 0
93 *581:36 *585:30 0.0015902
94 *581:108 *585:94 0.000458035
95 *581:112 *585:94 9.90367e-05
96 *582:42 *1124:B 9.71118e-06
97 *582:55 *1124:B 3.96549e-05
98 *584:46 *585:30 0.00226355
*RES
1 *1599:q[19] *585:30 32.0487 
2 *585:30 *585:44 46.4107 
3 *585:44 *585:46 8.33929 
4 *585:46 *1129:B2 22.3 
5 *585:46 *585:69 33.9107 
6 *585:69 *1124:B 20.7821 
7 *585:69 *585:94 39.0536 
8 *585:94 *585:96 4.5 
9 *585:96 *585:106 16.6786 
10 *585:106 *1320:A1 20.2464 
11 *585:106 *1302:A1 20.8 
12 *585:96 *1165:A1 15.7464 
13 *585:94 *1143:A 11.0679 
14 *585:30 *1602:A 9.3 
*END

*D_NET *586 0.0500877
*CONN
*I *1431:B I *D sky130_fd_sc_hd__or2_2
*I *1598:addr[1] I *D tt_rom
*I *1430:B I *D sky130_fd_sc_hd__nand2_2
*I *1067:A I *D sky130_fd_sc_hd__inv_2
*I *1599:q[1] O *D incrementer
*CAP
1 *1431:B 1.16062e-05
2 *1598:addr[1] 0.00221623
3 *1430:B 0.000171085
4 *1067:A 0
5 *1599:q[1] 0.0049366
6 *586:74 0.00844818
7 *586:49 0.00643767
8 *586:47 0.00242003
9 *586:30 0.00731039
10 *1598:addr[1] *1598:addr[2] 1.12091e-05
11 *1598:addr[1] *1598:addr[4] 0.00254448
12 *1598:addr[1] *588:84 4.66249e-05
13 *586:30 *1073:A 0
14 *586:30 *587:18 2.10823e-05
15 *586:30 *588:26 0.000568096
16 *586:30 *592:22 0
17 *586:30 *593:24 0.00101389
18 *586:47 *587:18 0.000211222
19 *586:47 *587:31 0.000302068
20 *586:47 *587:70 0.000721036
21 *586:47 *588:26 0.000433453
22 *586:47 *588:84 0
23 *586:74 *1546:A 0
24 *586:74 *1598:addr[2] 0
25 *586:74 *1598:addr[5] 0.0051332
26 *586:74 *588:84 0
27 *586:74 *597:14 0
28 *1089:A *586:30 0
29 *1163:B *586:74 0
30 *1167:A *586:74 0
31 *1187:B1 *586:74 0.000309469
32 *1237:B1 *586:47 0
33 *1242:A2 *586:30 4.33002e-05
34 *1276:A *586:74 8.04806e-06
35 *1276:B *1431:B 5.52302e-05
36 *1276:B *586:74 4.1311e-05
37 *1333:A2 *586:30 2.72011e-05
38 *1334:A2 *586:30 0
39 *1335:C *586:74 0
40 *1397:A2 *586:74 0
41 *1398:A1 *586:74 0
42 *1430:A *1430:B 4.80788e-05
43 *1430:A *586:47 2.8266e-06
44 *1430:A *586:49 6.8646e-06
45 *1440:B1 *1431:B 5.52302e-05
46 *1440:B1 *586:49 1.08359e-05
47 *1440:B1 *586:74 1.98839e-05
48 *1440:B2 *1430:B 0.000141032
49 *1440:B2 *586:49 3.06511e-05
50 *1440:B2 *586:74 5.33005e-05
51 *1500:D *586:74 3.29354e-05
52 *1522:A *586:30 0.000255583
53 *1522:A *586:47 1.39737e-05
54 *1598:addr[0] *1598:addr[1] 2.05916e-05
55 *1598:addr[11] *1598:addr[1] 0.000835377
56 *1599:clk *586:30 0.000117717
57 *132:12 *586:30 8.03271e-05
58 *134:52 *586:47 0.00105277
59 *208:10 *586:74 0
60 *211:48 *586:74 0.000532067
61 *216:8 *586:74 0.000121926
62 *355:18 *586:74 2.11419e-05
63 *357:10 *586:74 0
64 *361:10 *586:74 0
65 *421:36 *1598:addr[1] 0.000518215
66 *468:24 *586:47 0.000190452
67 *473:28 *586:47 5.72652e-05
68 *526:68 *586:74 0.000503196
69 *573:41 *586:74 0
70 *575:26 *586:30 2.86392e-05
71 *579:24 *586:30 2.82126e-05
72 *579:56 *1430:B 0.000142001
73 *579:56 *586:47 9.67644e-05
74 *579:56 *586:49 3.81995e-05
75 *580:28 *586:30 5.89278e-05
76 *584:46 *586:30 0.000321245
77 *584:103 *586:74 0.000767078
78 *585:30 *586:30 0.000315747
79 *585:94 *586:74 0.000125883
*RES
1 *1599:q[1] *586:30 29.1411 
2 *586:30 *1067:A 13.8 
3 *586:30 *586:47 16.3504 
4 *586:47 *586:49 1.03571 
5 *586:49 *1430:B 17.8714 
6 *586:49 *586:74 47.4698 
7 *586:74 *1598:addr[1] 43.1595 
8 *586:47 *1431:B 14.3357 
*END

*D_NET *587 0.0468029
*CONN
*I *1598:addr[2] I *D tt_rom
*I *1439:A2 I *D sky130_fd_sc_hd__a221o_2
*I *1068:A I *D sky130_fd_sc_hd__inv_2
*I *1599:q[2] O *D incrementer
*CAP
1 *1598:addr[2] 0.00320676
2 *1439:A2 0.000377263
3 *1068:A 0
4 *1599:q[2] 0.00301956
5 *587:98 0.00509952
6 *587:90 0.00262762
7 *587:70 0.00514667
8 *587:31 0.00541899
9 *587:18 0.00364948
10 *1598:addr[2] *1598:addr[3] 3.01021e-05
11 *1598:addr[2] *1598:addr[5] 4.53109e-06
12 *1598:addr[2] *588:84 0.00206306
13 *587:18 *588:22 0.000872724
14 *587:18 *588:26 0.000443313
15 *587:18 *590:83 1.01912e-05
16 *587:18 *594:34 0.00281217
17 *587:31 *590:83 6.64229e-05
18 *587:70 *588:84 0
19 uio_oe[5] *1439:A2 4.96905e-05
20 uio_oe[6] *587:31 4.38265e-05
21 *1089:A *587:18 1.31781e-06
22 *1144:B *587:90 0
23 *1149:B *587:90 0.000142793
24 *1152:A *1598:addr[2] 0
25 *1178:B *587:90 3.69047e-06
26 *1180:B *587:90 5.33334e-05
27 *1182:A *587:70 0.000308595
28 *1193:B *587:90 8.02709e-05
29 *1201:A *587:70 7.89748e-05
30 *1243:B *1439:A2 0
31 *1284:B *587:70 0.000122494
32 *1327:B *1439:A2 3.17148e-05
33 *1347:B *587:90 0.000220455
34 *1350:C *1598:addr[2] 0.000148196
35 *1354:A *1598:addr[2] 0
36 *1381:A2 *1598:addr[2] 0.000120215
37 *1382:A2 *1598:addr[2] 0.000167069
38 *1383:A *1598:addr[2] 0.000216304
39 *1385:A2 *1598:addr[2] 9.16014e-05
40 *1396:B1 *1598:addr[2] 0
41 *1403:B *1598:addr[2] 7.80714e-06
42 *1411:A *1598:addr[2] 0.000160732
43 *1411:B *1598:addr[2] 0.000193048
44 *1425:B *1598:addr[2] 7.49162e-06
45 *1439:A1 *1439:A2 0.000603422
46 *1439:B1 *1439:A2 3.28686e-05
47 *1443:A *1439:A2 4.57445e-05
48 *1443:B *1439:A2 0
49 *1444:CLK *587:70 0.000409513
50 *1491:D *587:90 6.93379e-05
51 *1497:D *587:70 0
52 *1498:D *587:70 9.19099e-05
53 *1501:CLK *587:70 0
54 *1512:D *587:90 4.88515e-05
55 *1521:D *1598:addr[2] 0.000384642
56 *1522:A *587:18 1.01912e-05
57 *1522:A *587:31 8.64853e-05
58 *1536:A *587:70 4.27437e-05
59 *1556:A *587:90 2.28578e-05
60 *1572:A *587:98 9.20202e-05
61 *1575:A *587:70 0.000230414
62 *1588:A *1598:addr[2] 0
63 *1588:A *587:98 0
64 *1589:A *587:98 0
65 *1592:A *587:90 0
66 *1598:addr[0] *1598:addr[2] 0.000550146
67 *1598:addr[1] *1598:addr[2] 1.12091e-05
68 *1599:clk *587:18 0.000130499
69 *79:34 *587:70 0.000133109
70 *81:18 *587:70 0.000349657
71 *82:20 *587:70 0.000954416
72 *130:80 *1439:A2 3.52408e-05
73 *131:14 *1439:A2 0.000275859
74 *194:35 *587:70 0.00011396
75 *194:68 *587:70 0.000355271
76 *217:27 *587:90 0.00024732
77 *371:22 *1598:addr[2] 0
78 *378:10 *1598:addr[2] 0
79 *417:98 *1598:addr[2] 0
80 *426:87 *587:70 0.000397603
81 *454:6 *587:90 0.000255204
82 *472:51 *1439:A2 0
83 *475:14 *587:70 0.000109554
84 *480:12 *1598:addr[2] 0
85 *520:16 *1598:addr[2] 2.77715e-05
86 *528:12 *587:70 3.23658e-05
87 *528:146 *587:70 0.000296085
88 *534:22 *1598:addr[2] 0
89 *534:22 *587:90 0.000449539
90 *564:36 *1598:addr[2] 6.82922e-05
91 *564:45 *1598:addr[2] 9.41724e-05
92 *577:30 *587:70 0.00103102
93 *579:40 *587:18 9.77749e-05
94 *581:36 *587:18 0.000262454
95 *586:30 *587:18 2.10823e-05
96 *586:47 *587:18 0.000211222
97 *586:47 *587:31 0.000302068
98 *586:47 *587:70 0.000721036
99 *586:74 *1598:addr[2] 0
*RES
1 *1599:q[2] *587:18 23.7053 
2 *587:18 *1068:A 13.8 
3 *587:18 *587:31 7.15599 
4 *587:31 *1439:A2 26.9243 
5 *587:31 *587:70 46.9628 
6 *587:70 *587:90 35.5618 
7 *587:90 *587:98 27.2321 
8 *587:98 *1598:addr[2] 49.4945 
*END

*D_NET *588 0.0456712
*CONN
*I *1069:A I *D sky130_fd_sc_hd__inv_2
*I *1598:addr[3] I *D tt_rom
*I *1428:B I *D sky130_fd_sc_hd__nand2_2
*I *1429:B I *D sky130_fd_sc_hd__or2_2
*I *1599:q[3] O *D incrementer
*CAP
1 *1069:A 0.000141802
2 *1598:addr[3] 0.000169652
3 *1428:B 0.000101331
4 *1429:B 1.65094e-05
5 *1599:q[3] 0.00189244
6 *588:84 0.00766466
7 *588:43 0.00818956
8 *588:26 0.00203437
9 *588:22 0.00345889
10 *1598:addr[3] *1598:addr[4] 1.47863e-05
11 *588:22 *1329:S0 0.00031248
12 *588:22 *590:30 0.000476658
13 *588:22 *591:22 0
14 *588:22 *594:34 0.000256735
15 *588:26 *592:73 2.60254e-05
16 *588:84 *1598:addr[4] 0.00157296
17 *588:84 *1598:addr[5] 0
18 *1101:B1 *588:84 0.000342076
19 *1185:A2 *588:84 0
20 *1187:B1 *588:84 0.000266136
21 *1208:B *588:22 0.000332637
22 *1220:B *588:22 0.000111146
23 *1239:B1 *1069:A 0
24 *1239:B1 *588:22 0
25 *1239:C1 *1069:A 1.73088e-05
26 *1329:A0 *588:22 0.00012401
27 *1329:A1 *588:22 7.83587e-05
28 *1334:A2 *588:26 0
29 *1405:A *588:84 0.000198685
30 *1428:A *1428:B 0.00011069
31 *1428:A *588:43 5.76705e-05
32 *1441:C1 *1428:B 0
33 *1472:RESET_B *588:22 0
34 *1542:A *588:84 0.00106454
35 *1553:A *588:22 1.05524e-05
36 *1568:A *588:22 5.0725e-05
37 *1598:addr[0] *588:84 0.000981188
38 *1598:addr[1] *588:84 4.66249e-05
39 *1598:addr[2] *1598:addr[3] 3.01021e-05
40 *1598:addr[2] *588:84 0.00206306
41 *1599:clk *588:22 1.49122e-05
42 *1599:inc *588:22 0.000114637
43 *1602:B *588:22 0.000174876
44 *81:18 *588:84 0
45 *82:20 *588:84 0.000536489
46 *125:12 *588:26 7.08855e-05
47 *125:87 *1428:B 9.41642e-05
48 *128:6 *1069:A 1.33343e-05
49 *134:12 *1428:B 0.000108754
50 *134:12 *588:43 9.66219e-05
51 *134:52 *588:26 6.20441e-06
52 *134:52 *588:43 0.000290886
53 *147:26 *1069:A 4.0295e-05
54 *147:26 *588:22 4.90348e-05
55 *222:31 *588:84 0.000217264
56 *222:33 *588:84 0.000203597
57 *222:35 *588:84 7.10789e-05
58 *338:14 *588:84 8.87141e-05
59 *362:22 *588:84 0.00238197
60 *415:22 *1428:B 3.67257e-05
61 *419:25 *1429:B 6.27272e-06
62 *426:87 *588:84 0
63 *427:113 *588:22 0.000267814
64 *436:8 *588:22 0
65 *436:23 *588:22 0
66 *437:10 *588:22 9.98998e-06
67 *438:22 *588:22 0
68 *438:32 *588:22 0
69 *439:14 *588:22 3.84888e-05
70 *439:32 *588:22 0.000115676
71 *446:58 *588:84 6.87412e-05
72 *464:8 *1069:A 2.89016e-05
73 *470:10 *588:43 4.00349e-05
74 *473:28 *588:26 0.00154857
75 *473:28 *588:43 0.000982077
76 *473:28 *588:84 0.000383339
77 *494:14 *588:84 0
78 *535:39 *588:84 5.07157e-05
79 *570:57 *588:84 0.000532765
80 *575:26 *588:22 5.64774e-06
81 *575:30 *588:26 2.02162e-05
82 *575:30 *588:84 0.000840924
83 *575:45 *588:84 0.000484002
84 *577:70 *588:84 0
85 *579:87 *588:84 0
86 *580:28 *588:22 0.000330666
87 *581:36 *588:22 0.000126821
88 *584:46 *588:22 0.000117032
89 *584:74 *588:22 0.000530125
90 *586:30 *588:26 0.000568096
91 *586:47 *588:26 0.000433453
92 *586:47 *588:84 0
93 *586:74 *588:84 0
94 *587:18 *588:22 0.000872724
95 *587:18 *588:26 0.000443313
96 *587:70 *588:84 0
*RES
1 *1599:q[3] *588:22 45.7761 
2 *588:22 *588:26 8.28547 
3 *588:26 *1429:B 17.4868 
4 *588:26 *588:43 6.38175 
5 *588:43 *1428:B 16.6661 
6 *588:43 *588:84 48.9418 
7 *588:84 *1598:addr[3] 8.13692 
8 *588:22 *1069:A 16.5589 
*END

*D_NET *589 0.0477232
*CONN
*I *1326:S I *D sky130_fd_sc_hd__mux2_1
*I *1598:addr[4] I *D tt_rom
*I *1435:B I *D sky130_fd_sc_hd__or2_2
*I *1434:B I *D sky130_fd_sc_hd__nand2_2
*I *1324:S I *D sky130_fd_sc_hd__mux2_1
*I *1322:S0 I *D sky130_fd_sc_hd__mux4_2
*I *1331:S I *D sky130_fd_sc_hd__mux2_1
*I *1070:A I *D sky130_fd_sc_hd__inv_2
*I *1330:S I *D sky130_fd_sc_hd__mux2_1
*I *1329:S0 I *D sky130_fd_sc_hd__mux4_2
*I *1599:q[4] O *D incrementer
*CAP
1 *1326:S 1.73043e-05
2 *1598:addr[4] 0.00591985
3 *1435:B 7.69982e-06
4 *1434:B 0.000142039
5 *1324:S 0.00019126
6 *1322:S0 0.000483739
7 *1331:S 5.93138e-05
8 *1070:A 0.00035337
9 *1330:S 0
10 *1329:S0 0.000989614
11 *1599:q[4] 0.00263741
12 *589:146 0.00143115
13 *589:130 0.00837023
14 *589:120 0.00165792
15 *589:93 0.000687371
16 *589:33 0.00064535
17 *589:14 0.00281646
18 *1070:A *590:30 0
19 *1070:A *593:34 0
20 *1434:B *1427:B 1.05731e-05
21 *1435:B *1427:B 9.05976e-06
22 *589:14 *590:30 3.7538e-06
23 *589:14 *593:24 0.000299996
24 *589:14 *594:34 6.19798e-05
25 *589:33 *1329:S1 1.41029e-05
26 *589:33 *593:34 0
27 *602:CLK *589:146 8.20403e-05
28 *1095:A *1070:A 4.46186e-06
29 *1172:B *1434:B 5.41794e-05
30 *1172:B *589:146 0
31 *1173:A *589:146 3.81005e-05
32 *1205:A *1322:S0 0.000157934
33 *1206:B *1322:S0 1.21289e-05
34 *1210:A *1070:A 1.24368e-05
35 *1214:A *589:14 2.00751e-05
36 *1216:A *589:14 0.000185118
37 *1217:A *589:14 1.41029e-05
38 *1217:B *589:14 0.000428324
39 *1220:A *1331:S 0.000173083
40 *1222:B *1322:S0 9.41642e-05
41 *1223:A *1324:S 0
42 *1224:A *1324:S 0
43 *1227:B *589:130 0
44 *1228:B *589:130 0
45 *1229:B *589:146 0
46 *1239:B1 *1070:A 1.92905e-05
47 *1241:C1 *1070:A 0
48 *1276:B *1434:B 0.000115011
49 *1276:B *589:146 2.89114e-05
50 *1292:A2 *589:146 0.000112398
51 *1292:B1 *589:146 1.81412e-05
52 *1322:A0 *589:130 0
53 *1323:B *1324:S 0.000340052
54 *1323:B *589:120 5.71472e-05
55 *1324:A0 *1324:S 5.49489e-05
56 *1324:A1 *1324:S 5.49489e-05
57 *1327:C *589:120 5.65955e-05
58 *1329:A0 *1322:S0 2.29097e-05
59 *1329:A0 *1329:S0 9.20222e-05
60 *1332:A2 *1322:S0 0.000186662
61 *1332:B1 *1331:S 0.000150618
62 *1334:A2 *1070:A 0
63 *1358:B *589:146 1.19402e-05
64 *1435:A *1434:B 0.000180566
65 *1435:A *1435:B 2.51721e-05
66 *1441:A1 *589:146 5.65801e-06
67 *1441:A2 *589:146 0.000139943
68 *1452:CLK *589:14 7.57394e-05
69 *1453:D *589:14 8.43535e-06
70 *1454:D *589:146 0
71 *1454:RESET_B *589:146 7.01858e-05
72 *1459:D *589:130 8.01067e-05
73 *1460:RESET_B *1331:S 0
74 *1462:RESET_B *1322:S0 1.98839e-05
75 *1463:RESET_B *1324:S 0.00020455
76 *1548:A *589:146 0.000122812
77 *1553:A *1070:A 8.82396e-05
78 *1554:A *1329:S0 4.58194e-05
79 *1559:A *589:33 0.000540109
80 *1560:A *1322:S0 0.000148189
81 *1561:A *589:130 0
82 *1598:addr[0] *1598:addr[4] 0.000183704
83 *1598:addr[1] *1598:addr[4] 0.00254448
84 *1598:addr[3] *1598:addr[4] 1.47863e-05
85 *1598:addr[11] *1598:addr[4] 0.00124654
86 *1602:B *1329:S0 0.000256398
87 *125:87 *589:146 6.57425e-05
88 *213:26 *589:146 0
89 *242:20 *589:93 4.8736e-05
90 *242:20 *589:120 0.000107944
91 *420:37 *1598:addr[4] 0.000684689
92 *421:36 *1598:addr[4] 0.000604734
93 *424:20 *1598:addr[4] 0.000815392
94 *427:82 *1322:S0 0.000224583
95 *427:103 *589:33 0.000335038
96 *429:16 *1326:S 9.86146e-05
97 *429:16 *589:120 0.000228136
98 *430:12 *589:146 8.47059e-05
99 *430:54 *589:146 0
100 *432:18 *1326:S 9.86146e-05
101 *432:22 *589:120 0.000258494
102 *434:20 *1322:S0 1.56e-05
103 *434:45 *1322:S0 7.2754e-05
104 *439:14 *589:33 0
105 *439:32 *1070:A 0
106 *439:32 *589:33 0
107 *440:10 *1322:S0 0.000139913
108 *440:14 *1322:S0 8.46829e-05
109 *440:26 *1322:S0 5.52238e-05
110 *466:25 *1070:A 0
111 *473:28 *1434:B 0
112 *473:28 *589:146 2.11419e-05
113 *576:76 *1598:addr[4] 0.000145351
114 *577:70 *1598:addr[4] 0
115 *578:18 *1598:addr[4] 0.000105933
116 *578:18 *589:14 0.000210142
117 *578:18 *589:130 0.000507274
118 *578:18 *589:146 3.13654e-05
119 *578:39 *1598:addr[4] 0.0024691
120 *579:24 *589:14 0.00103788
121 *579:87 *1598:addr[4] 0
122 *582:42 *1598:addr[4] 0.00130824
123 *582:42 *589:146 0
124 *582:66 *589:146 0
125 *585:69 *589:146 0.000569115
126 *588:22 *1329:S0 0.00031248
127 *588:84 *1598:addr[4] 0.00157296
*RES
1 *1599:q[4] *589:14 48.5836 
2 *589:14 *1329:S0 14.7768 
3 *1329:S0 *589:33 12.2143 
4 *589:33 *1330:S 13.8 
5 *589:33 *1070:A 19.7464 
6 *1329:S0 *1331:S 20.55 
7 *1329:S0 *1322:S0 20.125 
8 *1322:S0 *589:93 0.473214 
9 *589:93 *1324:S 23.8179 
10 *589:93 *589:120 13.0357 
11 *589:120 *589:130 12.5794 
12 *589:130 *589:146 33.1019 
13 *589:146 *1434:B 21.7643 
14 *589:146 *1435:B 9.72857 
15 *589:130 *1598:addr[4] 36.3527 
16 *589:120 *1326:S 14.7464 
*END

*D_NET *590 0.0476502
*CONN
*I *1333:A1 I *D sky130_fd_sc_hd__o31a_2
*I *1598:addr[5] I *D tt_rom
*I *1127:A I *D sky130_fd_sc_hd__or2_2
*I *1327:A I *D sky130_fd_sc_hd__or3_2
*I *1071:A I *D sky130_fd_sc_hd__inv_2
*I *1599:q[5] O *D incrementer
*CAP
1 *1333:A1 0.000101616
2 *1598:addr[5] 0.00416081
3 *1127:A 0
4 *1327:A 0.00022644
5 *1071:A 0
6 *1599:q[5] 0.00169467
7 *590:115 0.00567881
8 *590:99 0.00312366
9 *590:83 0.00357132
10 *590:60 0.00200403
11 *590:42 0.000445159
12 *590:36 0.000534345
13 *590:30 0.00207355
14 *590:30 *591:22 0.000754939
15 *590:30 *592:22 4.96851e-05
16 *590:30 *593:34 1.17968e-05
17 *590:30 *594:34 0.000841987
18 *590:36 *594:34 0.000209665
19 *590:42 *591:30 3.68701e-05
20 *590:42 *593:59 2.29826e-05
21 *590:83 *591:52 6.87975e-06
22 *590:83 *591:65 5.28081e-05
23 *590:99 *597:14 0.00047911
24 *590:99 *600:27 2.76766e-05
25 *590:115 *1545:A 2.14658e-05
26 *590:115 *600:27 1.32552e-05
27 uio_oe[6] *590:83 0.000219478
28 *1066:A *590:83 0.000180101
29 *1070:A *590:30 0
30 *1134:B1 *590:42 9.87983e-06
31 *1177:A *590:115 9.22948e-05
32 *1177:B *590:115 0.000192671
33 *1203:A *590:42 2.28499e-05
34 *1207:B *1333:A1 0
35 *1236:A2 *590:83 0.000228558
36 *1255:A *590:83 5.71472e-05
37 *1255:B *590:83 0.000258024
38 *1257:B *590:99 5.33334e-05
39 *1258:B *590:99 4.27338e-05
40 *1259:A *590:83 0.000141734
41 *1259:C *590:83 4.3516e-05
42 *1269:B *590:99 0.000137983
43 *1273:A_N *590:99 9.90367e-05
44 *1273:B *590:99 0
45 *1273:C *590:99 7.00967e-05
46 *1279:B *590:99 0.000225616
47 *1289:A1 *590:83 1.21258e-05
48 *1289:A2 *590:83 0.000225609
49 *1289:B1 *590:83 1.98839e-05
50 *1299:A_N *590:115 0
51 *1300:A0 *590:115 0
52 *1302:A2 *590:115 0.000125717
53 *1325:A *590:30 0
54 *1327:C *1327:A 5.52302e-05
55 *1328:A2 *1327:A 0.000274807
56 *1328:A2 *590:42 0.000225616
57 *1328:A3 *1327:A 1.55885e-05
58 *1332:B1 *590:30 0.000269311
59 *1333:A3 *1333:A1 4.22135e-06
60 *1333:A3 *590:30 2.86754e-05
61 *1334:A2 *1333:A1 2.11419e-05
62 *1334:A2 *590:36 0.00078561
63 *1335:C *590:115 0
64 *1337:A1 *590:115 5.49544e-05
65 *1372:A *590:115 0.000136892
66 *1378:A2 *1598:addr[5] 0
67 *1400:A1 *590:115 5.52302e-05
68 *1400:A2 *590:115 0.000363837
69 *1400:B1 *590:115 2.77173e-05
70 *1460:RESET_B *590:30 4.31358e-05
71 *1476:CLK *590:83 2.59355e-05
72 *1476:D *590:83 4.87669e-06
73 *1479:CLK *590:99 0
74 *1522:A *590:83 0
75 *1555:A *590:83 2.89114e-05
76 *1567:A *1327:A 0.000174232
77 *1567:A *590:42 0.000181803
78 *1598:addr[0] *1598:addr[5] 0.00144077
79 *1598:addr[2] *1598:addr[5] 4.53109e-06
80 *1598:addr[6] *1598:addr[5] 9.63368e-06
81 *1598:addr[9] *1598:addr[5] 0.000358523
82 *1598:addr[10] *1598:addr[5] 3.81355e-05
83 *1598:addr[11] *1598:addr[5] 8.76591e-06
84 *1602:B *590:30 0.000434133
85 *79:34 *590:99 0
86 *81:18 *590:99 2.21225e-05
87 *82:20 *590:115 0
88 *125:12 *590:83 2.22043e-05
89 *125:16 *590:83 0
90 *130:80 *1327:A 3.48705e-05
91 *173:10 *590:30 0
92 *176:34 *590:115 0.000390994
93 *178:22 *590:42 3.62191e-05
94 *178:22 *590:60 4.24169e-05
95 *178:22 *590:83 7.53108e-05
96 *187:12 *590:115 0.000301438
97 *187:31 *590:115 0.000274288
98 *265:16 *590:99 0.000691785
99 *267:6 *590:83 0.000124873
100 *267:6 *590:99 0.000144455
101 *272:10 *590:99 0.000175892
102 *317:14 *590:115 0
103 *336:16 *590:115 9.56233e-05
104 *338:14 *590:115 0.000102007
105 *355:18 *1598:addr[5] 0
106 *362:14 *590:115 2.64844e-05
107 *362:22 *590:115 4.19624e-06
108 *421:36 *1598:addr[5] 0.000559121
109 *440:26 *590:30 0
110 *446:31 *590:115 3.67356e-05
111 *450:74 *590:115 4.28365e-05
112 *466:25 *1333:A1 7.38085e-05
113 *470:38 *590:99 0.000102207
114 *472:25 *590:99 2.89016e-05
115 *472:39 *590:99 4.87953e-05
116 *533:54 *590:115 2.07382e-05
117 *533:85 *590:99 0.000256985
118 *570:57 *1598:addr[5] 0
119 *571:53 *1598:addr[5] 0.000314405
120 *573:41 *1598:addr[5] 0.000268925
121 *575:26 *590:30 0.00171176
122 *575:26 *590:42 0.000274114
123 *575:26 *590:60 7.99906e-05
124 *575:26 *590:83 0.000195895
125 *579:40 *590:30 0.000584603
126 *581:36 *590:30 0.000890428
127 *584:74 *590:36 0.000230451
128 *586:74 *1598:addr[5] 0.0051332
129 *587:18 *590:83 1.01912e-05
130 *587:31 *590:83 6.64229e-05
131 *588:22 *590:30 0.000476658
132 *588:84 *1598:addr[5] 0
133 *589:14 *590:30 3.7538e-06
*RES
1 *1599:q[5] *590:30 33.4854 
2 *590:30 *590:36 8.09213 
3 *590:36 *590:42 10.5982 
4 *590:42 *1071:A 9.3 
5 *590:42 *1327:A 15.3179 
6 *590:36 *590:60 1.1875 
7 *590:60 *1127:A 13.8 
8 *590:60 *590:83 40.1964 
9 *590:83 *590:99 41.2679 
10 *590:99 *590:115 46.5796 
11 *590:115 *1598:addr[5] 31.7215 
12 *590:30 *1333:A1 15.8982 
*END

*D_NET *591 0.0145221
*CONN
*I *1329:S1 I *D sky130_fd_sc_hd__mux4_2
*I *1322:S1 I *D sky130_fd_sc_hd__mux4_2
*I *1438:A2 I *D sky130_fd_sc_hd__a221o_2
*I *1072:A I *D sky130_fd_sc_hd__inv_2
*I *1133:A I *D sky130_fd_sc_hd__nand2_2
*I *1127:B I *D sky130_fd_sc_hd__or2_2
*I *1134:A1 I *D sky130_fd_sc_hd__o2111a_2
*I *1599:q[6] O *D incrementer
*CAP
1 *1329:S1 0.000101565
2 *1322:S1 0.000372521
3 *1438:A2 0.000209426
4 *1072:A 0.00011678
5 *1133:A 4.67914e-05
6 *1127:B 0.000145244
7 *1134:A1 8.7714e-06
8 *1599:q[6] 0.00122342
9 *591:65 0.000417956
10 *591:52 0.000193971
11 *591:41 0.000332821
12 *591:30 0.000656579
13 *591:26 0.00161537
14 *591:22 0.00205217
15 *591:22 *592:22 0.00248338
16 *591:22 *594:34 3.26364e-05
17 *591:30 *593:59 4.26825e-05
18 uio_oe[5] *1438:A2 0.000127336
19 *1066:A *1072:A 5.33005e-05
20 *1128:B *1127:B 1.58163e-05
21 *1134:B1 *591:30 8.6229e-06
22 *1134:B1 *591:41 1.04707e-05
23 *1203:A *591:30 9.16487e-05
24 *1206:A *591:30 0
25 *1220:A *1329:S1 0.000228644
26 *1220:A *591:22 0.000140777
27 *1221:A *1322:S1 1.90936e-05
28 *1322:A2 *1322:S1 5.52238e-05
29 *1334:A1 *591:41 0
30 *1334:A2 *591:41 2.28544e-05
31 *1334:B1 *591:41 0
32 *1437:B1 *1438:A2 0.000195121
33 *1438:B2 *1438:A2 2.84269e-05
34 *1439:B2 *591:41 9.25014e-06
35 *1439:B2 *591:52 0.000146061
36 *1439:B2 *591:65 8.6229e-06
37 *1451:CLK *1329:S1 2.30116e-06
38 *1451:CLK *591:22 4.51217e-05
39 *1463:CLK *591:30 0.000162125
40 *1463:D *591:30 0
41 *1559:A *1329:S1 9.54798e-06
42 *1567:A *591:30 0.000184855
43 *125:12 *591:65 9.60337e-06
44 *125:16 *591:65 5.41797e-06
45 *131:14 *1072:A 0.00020416
46 *131:14 *1438:A2 1.40034e-05
47 *131:39 *1072:A 3.18676e-05
48 *132:18 *1133:A 4.87854e-05
49 *173:10 *1127:B 6.09773e-05
50 *178:22 *591:41 0.000201453
51 *178:22 *591:52 0.000115277
52 *179:18 *1134:A1 1.59901e-05
53 *242:20 *1322:S1 9.60875e-05
54 *427:78 *591:30 4.11218e-05
55 *427:103 *1329:S1 6.06243e-05
56 *433:14 *1322:S1 5.52302e-05
57 *434:45 *591:30 0.000110126
58 *440:26 *591:26 0.00011393
59 *473:28 *591:65 0.000171257
60 *580:53 *1322:S1 0.000178568
61 *580:53 *591:26 0.00038737
62 *581:36 *591:22 6.75134e-05
63 *584:74 *591:22 2.07552e-05
64 *584:74 *591:26 9.94334e-06
65 *585:44 *1322:S1 1.90936e-05
66 *588:22 *591:22 0
67 *589:33 *1329:S1 1.41029e-05
68 *590:30 *591:22 0.000754939
69 *590:42 *591:30 3.68701e-05
70 *590:83 *591:52 6.87975e-06
71 *590:83 *591:65 5.28081e-05
*RES
1 *1599:q[6] *591:22 22.0035 
2 *591:22 *591:26 5.25867 
3 *591:26 *591:30 13.7046 
4 *591:30 *1134:A1 13.9607 
5 *591:30 *591:41 2.85714 
6 *591:41 *1127:B 15.9786 
7 *591:41 *591:52 1.94643 
8 *591:52 *1133:A 14.7464 
9 *591:52 *591:65 7.05357 
10 *591:65 *1072:A 12.3179 
11 *591:65 *1438:A2 14.0188 
12 *591:26 *1322:S1 19.2729 
13 *591:22 *1329:S1 16.8089 
*END

*D_NET *592 0.0155029
*CONN
*I *1128:A I *D sky130_fd_sc_hd__or2_2
*I *1328:B1 I *D sky130_fd_sc_hd__a31o_2
*I *1432:B2 I *D sky130_fd_sc_hd__a2bb2o_2
*I *1133:B I *D sky130_fd_sc_hd__nand2_2
*I *1132:C I *D sky130_fd_sc_hd__and3_2
*I *1073:A I *D sky130_fd_sc_hd__inv_2
*I *1599:q[7] O *D incrementer
*CAP
1 *1128:A 0.000141459
2 *1328:B1 0.000224856
3 *1432:B2 0
4 *1133:B 2.3401e-05
5 *1132:C 0
6 *1073:A 0.000372477
7 *1599:q[7] 0.00268459
8 *592:88 0.000618225
9 *592:73 0.000704817
10 *592:50 0.000644691
11 *592:39 0.000168384
12 *592:22 0.00305707
13 *592:22 *594:34 1.53786e-05
14 *1128:B *592:73 4.26759e-05
15 *1235:A *1073:A 0.000193745
16 *1240:C1 *1073:A 0
17 *1241:C1 *1133:B 5.33433e-05
18 *1242:A2 *592:50 4.46186e-06
19 *1242:B1 *1073:A 1.08359e-05
20 *1323:B *1328:B1 0.000230431
21 *1327:B *1328:B1 4.83724e-05
22 *1333:A2 *1073:A 0.000339445
23 *1333:A2 *592:22 0.000161441
24 *1334:A2 *592:22 0.000481229
25 *1334:A2 *592:73 0.000116011
26 *1432:A2_N *592:88 1.05731e-05
27 *1432:B1 *1128:A 4.18834e-05
28 *1432:B1 *592:88 0.000213384
29 *1437:B1 *1128:A 5.52302e-05
30 *1438:B1 *592:73 1.89507e-06
31 *1442:C *1328:B1 0.000110997
32 *1443:B *1128:A 5.64916e-05
33 *127:10 *1073:A 4.53699e-05
34 *130:32 *1073:A 1.45616e-05
35 *130:93 *1328:B1 0
36 *131:14 *1128:A 1.67439e-05
37 *131:14 *1328:B1 8.41555e-06
38 *131:14 *592:88 1.83766e-05
39 *132:12 *1073:A 4.43475e-05
40 *132:12 *592:50 7.80714e-06
41 *132:18 *1133:B 5.33433e-05
42 *133:20 *592:73 1.82398e-05
43 *173:10 *592:50 7.50473e-05
44 *174:20 *1128:A 2.74981e-06
45 *174:20 *1328:B1 4.61387e-05
46 *335:26 *592:73 5.56472e-05
47 *415:22 *1328:B1 4.53834e-05
48 *575:26 *592:50 4.56038e-05
49 *575:30 *592:73 0.00061652
50 *577:30 *592:22 0
51 *579:40 *592:22 0.000584516
52 *581:36 *592:22 0.000333485
53 *584:46 *592:22 8.36973e-05
54 *584:74 *592:22 0
55 *584:74 *592:73 0
56 *586:30 *1073:A 0
57 *586:30 *592:22 0
58 *588:26 *592:73 2.60254e-05
59 *590:30 *592:22 4.96851e-05
60 *591:22 *592:22 0.00248338
*RES
1 *1599:q[7] *592:22 24.4323 
2 *592:22 *1073:A 22.2107 
3 *592:22 *592:39 4.5 
4 *592:39 *1132:C 9.3 
5 *592:39 *592:50 8.21429 
6 *592:50 *1133:B 14.7464 
7 *592:50 *592:73 14.0469 
8 *592:73 *1432:B2 9.3 
9 *592:73 *592:88 8.52679 
10 *592:88 *1328:B1 19.5411 
11 *592:88 *1128:A 16.7375 
*END

*D_NET *593 0.0244643
*CONN
*I *1426:B I *D sky130_fd_sc_hd__nand2_2
*I *1427:B I *D sky130_fd_sc_hd__or2_2
*I *1317:A I *D sky130_fd_sc_hd__or2_2
*I *1129:A1 I *D sky130_fd_sc_hd__a32o_2
*I *1318:A I *D sky130_fd_sc_hd__nand2_2
*I *1134:C1 I *D sky130_fd_sc_hd__o2111a_2
*I *1599:q[8] O *D incrementer
*CAP
1 *1426:B 0
2 *1427:B 0.000235508
3 *1317:A 0
4 *1129:A1 5.73242e-05
5 *1318:A 0
6 *1134:C1 0
7 *1599:q[8] 0.00267677
8 *593:104 0.000956544
9 *593:83 0.0010737
10 *593:68 0.000443864
11 *593:59 0.000708879
12 *593:34 0.00141175
13 *593:24 0.00341352
14 *593:24 *594:34 3.7538e-06
15 *593:59 *594:46 0.00109061
16 *1070:A *593:34 0
17 *1129:A3 *1129:A1 0.000123352
18 *1129:A3 *593:83 6.31804e-05
19 *1134:B1 *593:59 3.32631e-05
20 *1208:A *593:34 1.21258e-05
21 *1231:B *593:59 9.60337e-06
22 *1234:B *593:83 0
23 *1280:B *593:104 9.54798e-06
24 *1281:A1 *593:104 0
25 *1281:A2 *593:83 0
26 *1317:B *593:59 4.60232e-06
27 *1318:B *593:59 0.000161395
28 *1319:A0 *593:83 7.83659e-05
29 *1329:A0 *593:24 0.000181796
30 *1332:B1 *593:34 0.000734376
31 *1333:A3 *593:34 0.000183726
32 *1335:C *593:104 0.00053378
33 *1359:B1 *593:59 0.00115228
34 *1359:B1 *593:104 4.29092e-05
35 *1426:A *1427:B 0.000149282
36 *1428:A *593:104 0.000189914
37 *1429:A *593:104 5.33005e-05
38 *1434:B *1427:B 1.05731e-05
39 *1435:B *1427:B 9.05976e-06
40 *1441:A1 *1427:B 0.000154261
41 *1441:B2 *1427:B 2.24195e-05
42 *1441:B2 *593:104 9.41642e-05
43 *1446:CLK *593:68 2.2351e-05
44 *1453:SET_B *593:24 1.01912e-05
45 *1458:RESET_B *593:24 5.80706e-06
46 *1559:A *593:34 0
47 *1602:B *593:24 0.000204906
48 *1602:B *593:59 9.77021e-06
49 *1602:C *593:24 2.93333e-05
50 *130:14 *593:34 7.69993e-05
51 *133:8 *593:59 5.25192e-06
52 *133:20 *593:59 0.000140933
53 *134:12 *593:104 3.21796e-05
54 *174:20 *593:59 1.32056e-05
55 *174:20 *593:68 1.10868e-05
56 *179:18 *593:34 2.09235e-05
57 *179:18 *593:59 0.000333017
58 *319:12 *593:59 0
59 *319:12 *593:68 5.33005e-05
60 *335:26 *593:83 0
61 *429:50 *593:104 5.27484e-05
62 *436:23 *593:24 5.33005e-05
63 *436:38 *593:24 0.00011529
64 *470:10 *593:104 2.09413e-05
65 *474:8 *593:104 0
66 *568:126 *593:24 0.000197448
67 *568:133 *593:24 7.73662e-05
68 *575:30 *593:104 0.000156151
69 *578:18 *593:24 0.0027009
70 *579:24 *593:24 0.0020818
71 *581:61 *593:24 9.97767e-06
72 *584:46 *593:24 0.000269701
73 *584:74 *1129:A1 9.91224e-05
74 *584:74 *593:59 5.0234e-05
75 *584:74 *593:68 0.000139202
76 *586:30 *593:24 0.00101389
77 *589:14 *593:24 0.000299996
78 *589:33 *593:34 0
79 *590:30 *593:34 1.17968e-05
80 *590:42 *593:59 2.29826e-05
81 *591:30 *593:59 4.26825e-05
*RES
1 *1599:q[8] *593:24 45.855 
2 *593:24 *593:34 18.6607 
3 *593:34 *1134:C1 9.3 
4 *593:34 *593:59 25.0437 
5 *593:59 *1318:A 9.3 
6 *593:59 *593:68 5.85714 
7 *593:68 *1129:A1 15.4429 
8 *593:68 *593:83 4.75 
9 *593:83 *1317:A 13.8 
10 *593:83 *593:104 18.5736 
11 *593:104 *1427:B 14.7107 
12 *593:104 *1426:B 9.3 
*END

*D_NET *594 0.0186087
*CONN
*I *1134:D1 I *D sky130_fd_sc_hd__o2111a_2
*I *1129:A2 I *D sky130_fd_sc_hd__a32o_2
*I *1074:A I *D sky130_fd_sc_hd__inv_2
*I *1599:q[9] O *D incrementer
*CAP
1 *1134:D1 1.04594e-05
2 *1129:A2 0.00017804
3 *1074:A 0
4 *1599:q[9] 0.00271726
5 *594:46 0.000771632
6 *594:34 0.00332131
7 *1129:B1 *1129:A2 0.000107228
8 *1129:B2 *1129:A2 5.33005e-05
9 *1130:A_N *1129:A2 0.000105747
10 *1223:B *594:46 1.02504e-05
11 *1232:B *594:46 0.000113778
12 *1327:C *594:46 9.60875e-05
13 *1334:A2 *594:34 9.77021e-06
14 *1599:clk *594:34 0.000664762
15 *1599:clk *594:46 0.00126987
16 *1602:B *594:46 2.79405e-05
17 *130:14 *1134:D1 1.94879e-05
18 *179:18 *1129:A2 0.000225988
19 *441:21 *594:46 1.84531e-05
20 *575:26 *1134:D1 1.01912e-05
21 *575:26 *594:34 0.00175708
22 *576:24 *594:34 4.69369e-05
23 *579:40 *594:34 5.10869e-05
24 *580:28 *594:34 0.000474284
25 *581:36 *594:34 0.000687408
26 *584:46 *594:34 0.000383352
27 *584:74 *594:34 4.31206e-05
28 *584:74 *594:46 6.46063e-05
29 *585:30 *594:34 4.43639e-05
30 *587:18 *594:34 0.00281217
31 *588:22 *594:34 0.000256735
32 *589:14 *594:34 6.19798e-05
33 *590:30 *594:34 0.000841987
34 *590:36 *594:34 0.000209665
35 *591:22 *594:34 3.26364e-05
36 *592:22 *594:34 1.53786e-05
37 *593:24 *594:34 3.7538e-06
38 *593:59 *594:46 0.00109061
*RES
1 *1599:q[9] *594:34 29.6805 
2 *594:34 *594:46 13.0487 
3 *594:46 *1074:A 9.3 
4 *594:46 *1129:A2 14.0857 
5 *594:34 *1134:D1 17.4868 
*END

*D_NET *595 0.000400297
*CONN
*I *1601:B I *D sky130_fd_sc_hd__and2_1
*I *1602:Y O *D sky130_fd_sc_hd__nand4_1
*CAP
1 *1601:B 8.55252e-05
2 *1602:Y 8.55252e-05
3 *1214:A *1601:B 0.000177253
4 *1217:B *1601:B 0
5 *1602:C *1601:B 1.32056e-05
6 *1602:D *1601:B 2.70794e-05
7 *585:44 *1601:B 1.17091e-05
*RES
1 *1602:Y *1601:B 21.225 
*END

*D_NET *596 0.00134768
*CONN
*I *1599:rst_n I *D incrementer
*I *1601:X O *D sky130_fd_sc_hd__and2_1
*CAP
1 *1599:rst_n 0.00051972
2 *1601:X 0.00051972
3 *1599:clk *1599:rst_n 6.28811e-05
4 *1599:inc *1599:rst_n 3.7566e-05
5 *580:28 *1599:rst_n 3.48416e-06
6 *581:36 *1599:rst_n 7.60572e-05
7 *584:46 *1599:rst_n 5.21955e-05
8 *585:30 *1599:rst_n 7.60572e-05
*RES
1 *1601:X *1599:rst_n 37.3951 
*END

*D_NET *597 0.00651597
*CONN
*I *1139:B I *D sky130_fd_sc_hd__and2b_2
*I *1448:D I *D sky130_fd_sc_hd__dfxtp_2
*I *1138:Y O *D sky130_fd_sc_hd__nor3_2
*CAP
1 *1139:B 0.000412434
2 *1448:D 0
3 *1138:Y 0.00134446
4 *597:14 0.00175689
5 *1139:B *1139:A_N 9.41642e-05
6 *1139:B *1523:A 5.83617e-05
7 *597:14 *1546:A 0.000118824
8 *1165:B1 *597:14 1.00375e-05
9 *1166:B1 *597:14 0.00034961
10 *1168:A *597:14 0
11 *1171:A *597:14 0.000169824
12 *1171:B *597:14 0.000147121
13 *1306:A *597:14 0
14 *1306:B *597:14 0
15 *1356:S *597:14 0.00016959
16 *1399:C1 *597:14 0
17 *1400:A1 *597:14 0
18 *1448:CLK *597:14 5.52238e-05
19 *1501:CLK *597:14 4.00395e-05
20 *1501:D *597:14 0
21 *81:18 *597:14 0.000185906
22 *200:12 *597:14 0.000174206
23 *426:59 *1139:B 0.000363257
24 *426:59 *597:14 8.23203e-05
25 *426:70 *597:14 1.34436e-05
26 *533:85 *1139:B 3.67252e-05
27 *533:85 *597:14 3.69047e-06
28 *581:108 *597:14 5.52238e-05
29 *581:112 *597:14 9.31893e-05
30 *585:94 *597:14 0.000302315
31 *586:74 *597:14 0
32 *590:99 *597:14 0.00047911
*RES
1 *1138:Y *597:14 48.5455 
2 *597:14 *1448:D 9.3 
3 *597:14 *1139:B 17.733 
*END

*D_NET *598 0.00176459
*CONN
*I *1139:A_N I *D sky130_fd_sc_hd__and2b_2
*I *1523:A I *D sky130_fd_sc_hd__buf_2
*I *1448:Q O *D sky130_fd_sc_hd__dfxtp_2
*CAP
1 *1139:A_N 8.99385e-05
2 *1523:A 0.000545348
3 *1448:Q 0
4 *598:4 0.000635286
5 *1139:B *1139:A_N 9.41642e-05
6 *1139:B *1523:A 5.83617e-05
7 *1448:CLK *1523:A 1.92789e-05
8 *1498:D *1523:A 0
9 *81:18 *1523:A 0.000154762
10 *426:59 *1523:A 0.000167447
*RES
1 *1448:Q *598:4 9.3 
2 *598:4 *1523:A 26.5321 
3 *598:4 *1139:A_N 10.9786 
*END

*D_NET *599 0.00170634
*CONN
*I *1545:A I *D sky130_fd_sc_hd__dlygate4sd3_1
*I *1336:A I *D sky130_fd_sc_hd__or2_2
*I *1501:Q O *D sky130_fd_sc_hd__dfxtp_2
*CAP
1 *1545:A 7.78607e-05
2 *1336:A 0.000134622
3 *1501:Q 0.000168591
4 *599:10 0.000381074
5 *1337:A2 *1545:A 0
6 *1337:B1 *1336:A 1.31516e-05
7 *1337:B1 *599:10 5.80706e-06
8 *1337:C1 *1336:A 9.60808e-05
9 *1337:C1 *1545:A 5.33005e-05
10 *1400:A2 *1545:A 0.000276211
11 *1400:B1 *1336:A 0
12 *1400:B1 *1545:A 0.00014285
13 *79:34 *599:10 9.87672e-05
14 *336:16 *1336:A 0.000167741
15 *338:14 *599:10 0
16 *362:14 *1336:A 0
17 *362:14 *1545:A 6.19365e-05
18 *528:30 *1336:A 6.87975e-06
19 *590:115 *1545:A 2.14658e-05
*RES
1 *1501:Q *599:10 16.3893 
2 *599:10 *1336:A 16.6571 
3 *599:10 *1545:A 17.2286 
*END

*D_NET *600 0.0031815
*CONN
*I *1336:B I *D sky130_fd_sc_hd__or2_2
*I *1076:A I *D sky130_fd_sc_hd__inv_2
*I *1546:A I *D sky130_fd_sc_hd__dlygate4sd3_1
*I *1500:Q O *D sky130_fd_sc_hd__dfxtp_2
*CAP
1 *1336:B 0
2 *1076:A 0.000152463
3 *1546:A 0.000159508
4 *1500:Q 0
5 *600:27 0.000685902
6 *600:4 0.000692947
7 *1165:A2 *600:27 5.80706e-06
8 *1165:B1 *600:27 0
9 *1337:A1 *1076:A 0
10 *1398:A2 *1546:A 0.00010462
11 *1399:A1 *600:27 1.28809e-05
12 *1399:A2 *600:27 0.000100338
13 *1399:B1 *600:27 0.000343735
14 *1399:C1 *600:27 1.2662e-05
15 *1400:A1 *1546:A 0.000315158
16 *1400:A1 *600:27 9.78828e-05
17 *1400:B1 *600:27 9.60875e-05
18 *185:8 *1076:A 3.10885e-05
19 *294:22 *1076:A 7.77751e-05
20 *320:50 *1076:A 0.000103055
21 *362:14 *1076:A 2.98375e-05
22 *362:14 *600:27 0
23 *586:74 *1546:A 0
24 *590:99 *600:27 2.76766e-05
25 *590:115 *600:27 1.32552e-05
26 *597:14 *1546:A 0.000118824
*RES
1 *1500:Q *600:4 9.3 
2 *600:4 *1546:A 22.9429 
3 *600:4 *600:27 18.4821 
4 *600:27 *1076:A 21.6036 
5 *600:27 *1336:B 9.3 
*END
