*SPEF "ieee 1481-1999"
*DESIGN "tt_um_rebelmike_asic_odyssey"
*DATE "08:53:13 Monday April 20, 2026"
*VENDOR "The OpenROAD Project"
*PROGRAM "OpenROAD"
*VERSION "dcf36133a369abc8f3c5e5738cd4d82e4903c0e0"
*DESIGN_FLOW "NAME_SCOPE LOCAL" "PIN_CAP NONE"
*DIVIDER /
*DELIMITER :
*BUS_DELIMITER []
*T_UNIT 1 NS
*C_UNIT 1 PF
*R_UNIT 1 OHM
*L_UNIT 1 HENRY

*NAME_MAP
*3 clk
*4 ena
*5 rst_n
*6 ui_in[0]
*7 ui_in[1]
*8 ui_in[2]
*9 ui_in[3]
*10 ui_in[4]
*11 ui_in[5]
*12 ui_in[6]
*13 ui_in[7]
*14 uio_in[0]
*15 uio_in[1]
*16 uio_in[2]
*17 uio_in[3]
*18 uio_in[4]
*19 uio_in[5]
*20 uio_in[6]
*21 uio_in[7]
*22 net
*23 net29
*24 net30
*25 net31
*26 net32
*27 net33
*28 net34
*29 net43
*30 net35
*31 net36
*32 net37
*33 net38
*34 net39
*35 net40
*36 net41
*37 uio_out[7]
*38 uo_out[0]
*39 uo_out[1]
*40 uo_out[2]
*41 uo_out[3]
*42 uo_out[4]
*43 uo_out[5]
*44 uo_out[6]
*45 uo_out[7]
*46 _000_
*47 _001_
*48 _002_
*49 _003_
*50 _004_
*51 _005_
*52 _006_
*53 _007_
*54 _008_
*55 _009_
*56 _010_
*57 _011_
*58 _012_
*59 _013_
*60 _014_
*61 _015_
*62 _016_
*63 _017_
*64 _018_
*65 _019_
*66 _020_
*67 _021_
*68 _022_
*69 _023_
*70 _024_
*71 _025_
*72 _026_
*73 _027_
*74 _028_
*75 _029_
*76 _030_
*77 _031_
*78 _032_
*79 _033_
*80 _034_
*81 _035_
*82 _036_
*83 _037_
*84 _038_
*85 _039_
*86 _040_
*87 _041_
*88 _042_
*89 _043_
*90 _044_
*91 _045_
*92 _046_
*93 _047_
*94 _048_
*95 _049_
*96 _050_
*97 _051_
*98 _052_
*99 _053_
*100 _054_
*101 _055_
*102 _056_
*103 _057_
*104 _058_
*105 _059_
*106 _060_
*107 _061_
*108 _062_
*109 _063_
*110 _064_
*111 _065_
*112 _066_
*113 _067_
*114 _068_
*115 _069_
*116 _070_
*117 _071_
*118 _072_
*119 _073_
*120 _074_
*121 _075_
*122 _076_
*123 _077_
*124 _078_
*125 _079_
*126 _080_
*127 _081_
*128 _082_
*129 _083_
*130 _084_
*131 _085_
*132 _086_
*133 _087_
*134 _088_
*135 _089_
*136 _090_
*137 _091_
*138 _092_
*139 _093_
*140 _094_
*141 _095_
*142 _096_
*143 _097_
*144 _098_
*145 _099_
*146 _100_
*147 _101_
*148 _102_
*149 _103_
*150 _104_
*151 _105_
*152 _106_
*153 _107_
*154 _108_
*155 _109_
*156 _110_
*157 _111_
*158 _112_
*159 _113_
*160 _114_
*161 _115_
*162 _116_
*163 _117_
*164 _118_
*165 _119_
*166 _120_
*167 _121_
*168 _122_
*169 _123_
*170 _124_
*171 _125_
*172 _126_
*173 _127_
*174 _128_
*175 _129_
*176 _130_
*177 _131_
*178 _132_
*179 _133_
*180 _134_
*181 _135_
*182 _136_
*183 _137_
*184 _138_
*185 _139_
*186 _140_
*187 _141_
*188 _142_
*189 _143_
*190 _144_
*191 _145_
*192 _146_
*193 _147_
*194 _148_
*195 _149_
*196 _150_
*197 _151_
*198 _152_
*199 _153_
*200 _154_
*201 _155_
*202 _156_
*203 _157_
*204 _158_
*205 _159_
*206 _160_
*207 _161_
*208 _162_
*209 _163_
*210 _164_
*211 _165_
*212 _166_
*213 _167_
*214 _168_
*215 _169_
*216 _170_
*217 _171_
*218 _172_
*219 _173_
*220 _174_
*221 _175_
*222 _176_
*223 _177_
*224 _178_
*225 _179_
*226 _180_
*227 _181_
*228 _182_
*229 _183_
*230 _184_
*231 _185_
*232 _186_
*233 _187_
*234 _188_
*235 _189_
*236 _190_
*237 _191_
*238 _192_
*239 _193_
*240 _194_
*241 _195_
*242 _196_
*243 _197_
*244 _198_
*245 _199_
*246 _200_
*247 _201_
*248 _202_
*249 _203_
*250 _204_
*251 _205_
*252 _206_
*253 _207_
*254 _208_
*255 _209_
*256 _210_
*257 _211_
*258 _212_
*259 _213_
*260 _214_
*261 _215_
*262 _216_
*263 _217_
*264 _218_
*265 _219_
*266 _220_
*267 _221_
*268 _222_
*269 _223_
*270 _224_
*271 _225_
*272 _226_
*273 _227_
*274 _228_
*275 _229_
*276 _230_
*277 _231_
*278 _232_
*279 _233_
*280 _234_
*281 _235_
*282 _236_
*283 _237_
*284 _238_
*285 _239_
*286 _240_
*287 _241_
*288 _242_
*289 _243_
*290 _244_
*291 _245_
*292 _246_
*293 _247_
*294 _248_
*295 _249_
*296 _250_
*297 _251_
*298 _252_
*299 _253_
*300 _254_
*301 _255_
*302 _256_
*303 _257_
*304 _258_
*305 _259_
*306 _260_
*307 _261_
*308 _262_
*309 _263_
*310 _264_
*311 _265_
*312 _266_
*313 _267_
*314 _268_
*315 _269_
*316 _270_
*317 _271_
*318 _272_
*319 _273_
*320 _274_
*321 _275_
*322 _276_
*323 _277_
*324 _278_
*325 _279_
*326 _280_
*327 _281_
*328 _282_
*329 _283_
*330 _284_
*331 _285_
*332 _286_
*333 _287_
*334 _288_
*335 _289_
*336 _290_
*337 _291_
*338 _292_
*339 _293_
*340 _294_
*341 _295_
*342 _296_
*343 _297_
*344 _298_
*345 _299_
*346 _300_
*347 _301_
*348 _302_
*349 _303_
*350 _304_
*351 _305_
*352 _306_
*353 _307_
*354 _308_
*355 _309_
*356 _310_
*357 _311_
*358 _312_
*359 _313_
*360 _314_
*361 _315_
*362 _316_
*363 _317_
*364 _318_
*365 _319_
*366 _320_
*367 _321_
*368 _322_
*369 _323_
*370 _324_
*371 _325_
*372 _326_
*373 _327_
*374 _328_
*375 _329_
*376 _330_
*377 _331_
*378 _332_
*379 _333_
*380 _334_
*381 _335_
*382 _336_
*383 _337_
*384 _338_
*385 _339_
*386 _340_
*387 _341_
*388 _342_
*389 _343_
*390 _344_
*391 _345_
*392 _346_
*393 _347_
*394 _348_
*395 _349_
*396 _350_
*397 _351_
*398 _352_
*399 _353_
*400 _354_
*401 _355_
*402 _356_
*403 _357_
*404 _358_
*405 _359_
*406 _360_
*407 _361_
*408 _362_
*409 _363_
*410 _364_
*411 _365_
*412 _366_
*413 _367_
*414 _368_
*415 _369_
*416 _370_
*417 _371_
*418 _372_
*419 _373_
*420 _374_
*421 _375_
*422 _376_
*423 _377_
*424 _378_
*425 _379_
*426 _380_
*427 adj_y\[0\]
*428 adj_y\[1\]
*429 adj_y\[2\]
*430 adj_y\[3\]
*431 adj_y\[4\]
*432 adj_y\[5\]
*433 bclk
*434 cell_clk
*435 cell_state\[0\]
*436 cell_state\[10\]
*437 cell_state\[11\]
*438 cell_state\[12\]
*439 cell_state\[13\]
*440 cell_state\[14\]
*441 cell_state\[15\]
*442 cell_state\[1\]
*443 cell_state\[2\]
*444 cell_state\[3\]
*445 cell_state\[4\]
*446 cell_state\[5\]
*447 cell_state\[6\]
*448 cell_state\[7\]
*449 cell_state\[8\]
*450 cell_state\[9\]
*451 counter\[0\]
*452 counter\[10\]
*453 counter\[1\]
*454 counter\[2\]
*455 counter\[3\]
*456 counter\[4\]
*457 counter\[5\]
*458 counter\[6\]
*459 counter\[7\]
*460 counter\[8\]
*461 counter\[9\]
*462 hsync
*463 hsync_r
*464 i_music\.pwm
*465 i_music\.sample\[0\]
*466 i_music\.sample\[1\]
*467 i_music\.sample\[2\]
*468 i_music\.sample\[3\]
*469 i_music\.sample\[4\]
*470 i_music\.sample\[5\]
*471 i_music\.sample\[6\]
*472 i_music\.sample\[7\]
*473 i_music\.thresh\[0\]
*474 i_music\.thresh\[1\]
*475 i_music\.thresh\[2\]
*476 i_music\.thresh\[3\]
*477 i_music\.thresh\[4\]
*478 i_music\.thresh\[5\]
*479 i_music\.thresh\[6\]
*480 i_music\.thresh\[7\]
*481 i_music\.thresh\[8\]
*482 i_music\.thresh\[9\]
*483 lfsr\[0\]
*484 lfsr\[10\]
*485 lfsr\[11\]
*486 lfsr\[12\]
*487 lfsr\[13\]
*488 lfsr\[14\]
*489 lfsr\[15\]
*490 lfsr\[16\]
*491 lfsr\[17\]
*492 lfsr\[18\]
*493 lfsr\[19\]
*494 lfsr\[1\]
*495 lfsr\[2\]
*496 lfsr\[3\]
*497 lfsr\[4\]
*498 lfsr\[5\]
*499 lfsr\[6\]
*500 lfsr\[7\]
*501 lfsr\[8\]
*502 lfsr\[9\]
*503 lfsr_buf\[0\]
*504 lfsr_buf\[10\]
*505 lfsr_buf\[11\]
*506 lfsr_buf\[12\]
*507 lfsr_buf\[13\]
*508 lfsr_buf\[14\]
*509 lfsr_buf\[1\]
*510 lfsr_buf\[2\]
*511 lfsr_buf\[3\]
*512 lfsr_buf\[4\]
*513 lfsr_buf\[5\]
*514 lfsr_buf\[6\]
*515 lfsr_buf\[7\]
*516 lfsr_buf\[8\]
*517 lfsr_buf\[9\]
*518 net1
*519 net10
*520 net11
*521 net12
*522 net13
*523 net14
*524 net15
*525 net16
*526 net17
*527 net18
*528 net19
*529 net2
*530 net20
*531 net21
*532 net22
*533 net23
*534 net24
*535 net25
*536 net26
*537 net27
*538 net28
*539 net3
*540 net4
*541 net42
*542 net44
*543 net45
*544 net46
*545 net47
*546 net48
*547 net49
*548 net5
*549 net50
*550 net51
*551 net52
*552 net53
*553 net54
*554 net55
*555 net56
*556 net57
*557 net58
*558 net59
*559 net6
*560 net60
*561 net61
*562 net7
*563 net8
*564 net9
*565 rom_q\[0\]
*566 rom_q\[1\]
*567 rom_q\[2\]
*568 rom_q\[3\]
*569 timing\.active
*570 timing\.count\[0\]
*571 timing\.count\[10\]
*572 timing\.count\[11\]
*573 timing\.count\[12\]
*574 timing\.count\[13\]
*575 timing\.count\[14\]
*576 timing\.count\[15\]
*577 timing\.count\[16\]
*578 timing\.count\[17\]
*579 timing\.count\[18\]
*580 timing\.count\[19\]
*581 timing\.count\[1\]
*582 timing\.count\[2\]
*583 timing\.count\[3\]
*584 timing\.count\[4\]
*585 timing\.count\[5\]
*586 timing\.count\[6\]
*587 timing\.count\[7\]
*588 timing\.count\[8\]
*589 timing\.count\[9\]
*590 timing\.count_max
*591 timing\.count_rst_n
*592 timing\.vsync
*593 vsync_r
*594 was_cell
*595 was_tt_sq
*596 ANTENNA_1
*597 ANTENNA_2
*598 ANTENNA_3
*599 ANTENNA_4
*600 ANTENNA_5
*601 ANTENNA_6
*602 CG
*603 FILLER_0_24
*604 FILLER_10_1
*605 FILLER_10_101
*606 FILLER_10_113
*607 FILLER_10_116
*608 FILLER_10_167
*609 FILLER_10_169
*610 FILLER_10_182
*611 FILLER_10_213
*612 FILLER_10_242
*613 FILLER_10_25
*614 FILLER_10_272
*615 FILLER_10_279
*616 FILLER_10_28
*617 FILLER_10_281
*618 FILLER_10_297
*619 FILLER_10_333
*620 FILLER_10_342
*621 FILLER_10_44
*622 FILLER_10_54
*623 FILLER_10_70
*624 FILLER_10_90
*625 FILLER_10_93
*626 FILLER_11_1
*627 FILLER_11_105
*628 FILLER_11_195
*629 FILLER_11_197
*630 FILLER_11_207
*631 FILLER_11_231
*632 FILLER_11_251
*633 FILLER_11_29
*634 FILLER_11_307
*635 FILLER_11_327
*636 FILLER_11_337
*637 FILLER_11_340
*638 FILLER_11_66
*639 FILLER_11_69
*640 FILLER_11_83
*641 FILLER_11_85
*642 FILLER_11_88
*643 FILLER_11_9
*644 FILLER_12_1
*645 FILLER_12_110
*646 FILLER_12_118
*647 FILLER_12_164
*648 FILLER_12_167
*649 FILLER_12_190
*650 FILLER_12_220
*651 FILLER_12_223
*652 FILLER_12_225
*653 FILLER_12_271
*654 FILLER_12_295
*655 FILLER_12_333
*656 FILLER_12_337
*657 FILLER_12_340
*658 FILLER_12_42
*659 FILLER_12_45
*660 FILLER_12_53
*661 FILLER_12_70
*662 FILLER_12_73
*663 FILLER_13_112
*664 FILLER_13_123
*665 FILLER_13_137
*666 FILLER_13_141
*667 FILLER_13_144
*668 FILLER_13_147
*669 FILLER_13_169
*670 FILLER_13_18
*671 FILLER_13_197
*672 FILLER_13_200
*673 FILLER_13_209
*674 FILLER_13_236
*675 FILLER_13_251
*676 FILLER_13_270
*677 FILLER_13_282
*678 FILLER_13_306
*679 FILLER_13_339
*680 FILLER_13_342
*681 FILLER_13_63
*682 FILLER_13_66
*683 FILLER_13_80
*684 FILLER_13_83
*685 FILLER_13_85
*686 FILLER_13_88
*687 FILLER_13_91
*688 FILLER_14_1
*689 FILLER_14_10
*690 FILLER_14_148
*691 FILLER_14_162
*692 FILLER_14_192
*693 FILLER_14_195
*694 FILLER_14_259
*695 FILLER_14_281
*696 FILLER_14_307
*697 FILLER_14_331
*698 FILLER_14_334
*699 FILLER_14_337
*700 FILLER_14_340
*701 FILLER_14_44
*702 FILLER_14_47
*703 FILLER_14_63
*704 FILLER_14_66
*705 FILLER_14_69
*706 FILLER_14_93
*707 FILLER_15_1
*708 FILLER_15_105
*709 FILLER_15_149
*710 FILLER_15_15
*711 FILLER_15_174
*712 FILLER_15_18
*713 FILLER_15_195
*714 FILLER_15_21
*715 FILLER_15_24
*716 FILLER_15_251
*717 FILLER_15_27
*718 FILLER_15_29
*719 FILLER_15_309
*720 FILLER_15_336
*721 FILLER_15_339
*722 FILLER_15_342
*723 FILLER_15_37
*724 FILLER_15_4
*725 FILLER_15_40
*726 FILLER_15_46
*727 FILLER_15_65
*728 FILLER_15_80
*729 FILLER_15_85
*730 FILLER_16_1
*731 FILLER_16_10
*732 FILLER_16_102
*733 FILLER_16_108
*734 FILLER_16_119
*735 FILLER_16_13
*736 FILLER_16_147
*737 FILLER_16_16
*738 FILLER_16_162
*739 FILLER_16_19
*740 FILLER_16_194
*741 FILLER_16_214
*742 FILLER_16_217
*743 FILLER_16_22
*744 FILLER_16_230
*745 FILLER_16_25
*746 FILLER_16_259
*747 FILLER_16_289
*748 FILLER_16_29
*749 FILLER_16_309
*750 FILLER_16_32
*751 FILLER_16_328
*752 FILLER_16_331
*753 FILLER_16_334
*754 FILLER_16_337
*755 FILLER_16_340
*756 FILLER_16_35
*757 FILLER_16_38
*758 FILLER_16_4
*759 FILLER_16_41
*760 FILLER_16_44
*761 FILLER_16_47
*762 FILLER_16_55
*763 FILLER_16_57
*764 FILLER_16_7
*765 FILLER_16_80
*766 FILLER_1_101
*767 FILLER_1_104
*768 FILLER_1_107
*769 FILLER_1_110
*770 FILLER_1_113
*771 FILLER_1_128
*772 FILLER_1_136
*773 FILLER_1_139
*774 FILLER_1_141
*775 FILLER_1_144
*776 FILLER_1_154
*777 FILLER_1_157
*778 FILLER_1_164
*779 FILLER_1_167
*780 FILLER_1_169
*781 FILLER_1_177
*782 FILLER_1_180
*783 FILLER_1_183
*784 FILLER_1_194
*785 FILLER_1_203
*786 FILLER_1_225
*787 FILLER_1_245
*788 FILLER_1_251
*789 FILLER_1_253
*790 FILLER_1_262
*791 FILLER_1_265
*792 FILLER_1_27
*793 FILLER_1_279
*794 FILLER_1_29
*795 FILLER_1_290
*796 FILLER_1_322
*797 FILLER_1_325
*798 FILLER_1_328
*799 FILLER_1_331
*800 FILLER_1_334
*801 FILLER_1_337
*802 FILLER_1_340
*803 FILLER_1_39
*804 FILLER_1_55
*805 FILLER_1_57
*806 FILLER_1_60
*807 FILLER_1_70
*808 FILLER_1_75
*809 FILLER_1_78
*810 FILLER_1_85
*811 FILLER_1_92
*812 FILLER_1_95
*813 FILLER_1_98
*814 FILLER_2_1
*815 FILLER_2_121
*816 FILLER_2_129
*817 FILLER_2_135
*818 FILLER_2_15
*819 FILLER_2_176
*820 FILLER_2_179
*821 FILLER_2_200
*822 FILLER_2_212
*823 FILLER_2_24
*824 FILLER_2_262
*825 FILLER_2_276
*826 FILLER_2_279
*827 FILLER_2_315
*828 FILLER_2_318
*829 FILLER_2_321
*830 FILLER_2_324
*831 FILLER_2_327
*832 FILLER_2_330
*833 FILLER_2_333
*834 FILLER_2_337
*835 FILLER_2_340
*836 FILLER_2_49
*837 FILLER_2_52
*838 FILLER_2_55
*839 FILLER_2_57
*840 FILLER_3_1
*841 FILLER_3_102
*842 FILLER_3_115
*843 FILLER_3_118
*844 FILLER_3_135
*845 FILLER_3_138
*846 FILLER_3_141
*847 FILLER_3_157
*848 FILLER_3_16
*849 FILLER_3_160
*850 FILLER_3_163
*851 FILLER_3_166
*852 FILLER_3_176
*853 FILLER_3_179
*854 FILLER_3_182
*855 FILLER_3_190
*856 FILLER_3_193
*857 FILLER_3_197
*858 FILLER_3_200
*859 FILLER_3_203
*860 FILLER_3_219
*861 FILLER_3_234
*862 FILLER_3_270
*863 FILLER_3_304
*864 FILLER_3_307
*865 FILLER_3_309
*866 FILLER_3_312
*867 FILLER_3_327
*868 FILLER_3_334
*869 FILLER_3_34
*870 FILLER_3_74
*871 FILLER_3_93
*872 FILLER_4_1
*873 FILLER_4_107
*874 FILLER_4_110
*875 FILLER_4_120
*876 FILLER_4_123
*877 FILLER_4_133
*878 FILLER_4_136
*879 FILLER_4_139
*880 FILLER_4_142
*881 FILLER_4_161
*882 FILLER_4_193
*883 FILLER_4_201
*884 FILLER_4_204
*885 FILLER_4_220
*886 FILLER_4_223
*887 FILLER_4_237
*888 FILLER_4_257
*889 FILLER_4_269
*890 FILLER_4_279
*891 FILLER_4_28
*892 FILLER_4_281
*893 FILLER_4_301
*894 FILLER_4_334
*895 FILLER_4_342
*896 FILLER_4_57
*897 FILLER_5_123
*898 FILLER_5_130
*899 FILLER_5_133
*900 FILLER_5_141
*901 FILLER_5_154
*902 FILLER_5_157
*903 FILLER_5_174
*904 FILLER_5_197
*905 FILLER_5_210
*906 FILLER_5_221
*907 FILLER_5_239
*908 FILLER_5_242
*909 FILLER_5_250
*910 FILLER_5_261
*911 FILLER_5_264
*912 FILLER_5_282
*913 FILLER_5_307
*914 FILLER_5_340
*915 FILLER_5_66
*916 FILLER_5_72
*917 FILLER_5_83
*918 FILLER_5_85
*919 FILLER_5_99
*920 FILLER_6_103
*921 FILLER_6_120
*922 FILLER_6_123
*923 FILLER_6_126
*924 FILLER_6_142
*925 FILLER_6_152
*926 FILLER_6_174
*927 FILLER_6_202
*928 FILLER_6_220
*929 FILLER_6_223
*930 FILLER_6_225
*931 FILLER_6_251
*932 FILLER_6_291
*933 FILLER_6_334
*934 FILLER_6_34
*935 FILLER_6_342
*936 FILLER_6_47
*937 FILLER_6_57
*938 FILLER_6_67
*939 FILLER_6_95
*940 FILLER_7_102
*941 FILLER_7_105
*942 FILLER_7_118
*943 FILLER_7_136
*944 FILLER_7_139
*945 FILLER_7_158
*946 FILLER_7_186
*947 FILLER_7_189
*948 FILLER_7_205
*949 FILLER_7_214
*950 FILLER_7_26
*951 FILLER_7_284
*952 FILLER_7_287
*953 FILLER_7_29
*954 FILLER_7_304
*955 FILLER_7_32
*956 FILLER_7_339
*957 FILLER_7_342
*958 FILLER_7_55
*959 FILLER_7_58
*960 FILLER_7_74
*961 FILLER_8_1
*962 FILLER_8_109
*963 FILLER_8_113
*964 FILLER_8_140
*965 FILLER_8_143
*966 FILLER_8_160
*967 FILLER_8_172
*968 FILLER_8_183
*969 FILLER_8_213
*970 FILLER_8_230
*971 FILLER_8_265
*972 FILLER_8_268
*973 FILLER_8_278
*974 FILLER_8_294
*975 FILLER_8_326
*976 FILLER_8_342
*977 FILLER_8_57
*978 FILLER_8_74
*979 FILLER_8_77
*980 FILLER_8_89
*981 FILLER_8_92
*982 FILLER_9_114
*983 FILLER_9_117
*984 FILLER_9_141
*985 FILLER_9_173
*986 FILLER_9_213
*987 FILLER_9_216
*988 FILLER_9_234
*989 FILLER_9_256
*990 FILLER_9_264
*991 FILLER_9_32
*992 FILLER_9_342
*993 FILLER_9_82
*994 FILLER_9_85
*995 PHY_EDGE_ROW_23_1_Left_17
*996 PHY_EDGE_ROW_23_1_Right_0
*997 PHY_EDGE_ROW_24_Left_18
*998 PHY_EDGE_ROW_24_Right_1
*999 PHY_EDGE_ROW_25_Left_19
*1000 PHY_EDGE_ROW_25_Right_2
*1001 PHY_EDGE_ROW_26_Left_20
*1002 PHY_EDGE_ROW_26_Right_3
*1003 PHY_EDGE_ROW_27_Left_21
*1004 PHY_EDGE_ROW_27_Right_4
*1005 PHY_EDGE_ROW_28_Left_22
*1006 PHY_EDGE_ROW_28_Right_5
*1007 PHY_EDGE_ROW_29_Left_23
*1008 PHY_EDGE_ROW_29_Right_6
*1009 PHY_EDGE_ROW_30_Left_24
*1010 PHY_EDGE_ROW_30_Right_7
*1011 PHY_EDGE_ROW_31_Left_25
*1012 PHY_EDGE_ROW_31_Right_8
*1013 PHY_EDGE_ROW_32_Left_26
*1014 PHY_EDGE_ROW_32_Right_9
*1015 PHY_EDGE_ROW_33_Left_27
*1016 PHY_EDGE_ROW_33_Right_10
*1017 PHY_EDGE_ROW_34_Left_28
*1018 PHY_EDGE_ROW_34_Right_11
*1019 PHY_EDGE_ROW_35_Left_29
*1020 PHY_EDGE_ROW_35_Right_12
*1021 PHY_EDGE_ROW_36_Left_30
*1022 PHY_EDGE_ROW_36_Right_13
*1023 PHY_EDGE_ROW_37_Left_31
*1024 PHY_EDGE_ROW_37_Right_14
*1025 PHY_EDGE_ROW_38_Left_32
*1026 PHY_EDGE_ROW_38_Right_15
*1027 PHY_EDGE_ROW_39_Left_33
*1028 PHY_EDGE_ROW_39_Right_16
*1029 TAP_TAPCELL_ROW_24_34
*1030 TAP_TAPCELL_ROW_24_35
*1031 TAP_TAPCELL_ROW_24_36
*1032 TAP_TAPCELL_ROW_24_37
*1033 TAP_TAPCELL_ROW_24_38
*1034 TAP_TAPCELL_ROW_24_39
*1035 TAP_TAPCELL_ROW_24_40
*1036 TAP_TAPCELL_ROW_24_41
*1037 TAP_TAPCELL_ROW_24_42
*1038 TAP_TAPCELL_ROW_24_43
*1039 TAP_TAPCELL_ROW_24_44
*1040 TAP_TAPCELL_ROW_24_45
*1041 TAP_TAPCELL_ROW_25_46
*1042 TAP_TAPCELL_ROW_25_47
*1043 TAP_TAPCELL_ROW_25_48
*1044 TAP_TAPCELL_ROW_25_49
*1045 TAP_TAPCELL_ROW_25_50
*1046 TAP_TAPCELL_ROW_25_51
*1047 TAP_TAPCELL_ROW_26_52
*1048 TAP_TAPCELL_ROW_26_53
*1049 TAP_TAPCELL_ROW_26_54
*1050 TAP_TAPCELL_ROW_26_55
*1051 TAP_TAPCELL_ROW_26_56
*1052 TAP_TAPCELL_ROW_26_57
*1053 TAP_TAPCELL_ROW_27_58
*1054 TAP_TAPCELL_ROW_27_59
*1055 TAP_TAPCELL_ROW_27_60
*1056 TAP_TAPCELL_ROW_27_61
*1057 TAP_TAPCELL_ROW_27_62
*1058 TAP_TAPCELL_ROW_27_63
*1059 TAP_TAPCELL_ROW_28_64
*1060 TAP_TAPCELL_ROW_28_65
*1061 TAP_TAPCELL_ROW_28_66
*1062 TAP_TAPCELL_ROW_28_67
*1063 TAP_TAPCELL_ROW_28_68
*1064 TAP_TAPCELL_ROW_28_69
*1065 TAP_TAPCELL_ROW_29_70
*1066 TAP_TAPCELL_ROW_29_71
*1067 TAP_TAPCELL_ROW_29_72
*1068 TAP_TAPCELL_ROW_29_73
*1069 TAP_TAPCELL_ROW_29_74
*1070 TAP_TAPCELL_ROW_29_75
*1071 TAP_TAPCELL_ROW_30_76
*1072 TAP_TAPCELL_ROW_30_77
*1073 TAP_TAPCELL_ROW_30_78
*1074 TAP_TAPCELL_ROW_30_79
*1075 TAP_TAPCELL_ROW_30_80
*1076 TAP_TAPCELL_ROW_30_81
*1077 TAP_TAPCELL_ROW_31_82
*1078 TAP_TAPCELL_ROW_31_83
*1079 TAP_TAPCELL_ROW_31_84
*1080 TAP_TAPCELL_ROW_31_85
*1081 TAP_TAPCELL_ROW_31_86
*1082 TAP_TAPCELL_ROW_31_87
*1083 TAP_TAPCELL_ROW_32_88
*1084 TAP_TAPCELL_ROW_32_89
*1085 TAP_TAPCELL_ROW_32_90
*1086 TAP_TAPCELL_ROW_32_91
*1087 TAP_TAPCELL_ROW_32_92
*1088 TAP_TAPCELL_ROW_32_93
*1089 TAP_TAPCELL_ROW_33_94
*1090 TAP_TAPCELL_ROW_33_95
*1091 TAP_TAPCELL_ROW_33_96
*1092 TAP_TAPCELL_ROW_33_97
*1093 TAP_TAPCELL_ROW_33_98
*1094 TAP_TAPCELL_ROW_33_99
*1095 TAP_TAPCELL_ROW_34_100
*1096 TAP_TAPCELL_ROW_34_101
*1097 TAP_TAPCELL_ROW_34_102
*1098 TAP_TAPCELL_ROW_34_103
*1099 TAP_TAPCELL_ROW_34_104
*1100 TAP_TAPCELL_ROW_34_105
*1101 TAP_TAPCELL_ROW_35_106
*1102 TAP_TAPCELL_ROW_35_107
*1103 TAP_TAPCELL_ROW_35_108
*1104 TAP_TAPCELL_ROW_35_109
*1105 TAP_TAPCELL_ROW_35_110
*1106 TAP_TAPCELL_ROW_35_111
*1107 TAP_TAPCELL_ROW_36_112
*1108 TAP_TAPCELL_ROW_36_113
*1109 TAP_TAPCELL_ROW_36_114
*1110 TAP_TAPCELL_ROW_36_115
*1111 TAP_TAPCELL_ROW_36_116
*1112 TAP_TAPCELL_ROW_36_117
*1113 TAP_TAPCELL_ROW_37_118
*1114 TAP_TAPCELL_ROW_37_119
*1115 TAP_TAPCELL_ROW_37_120
*1116 TAP_TAPCELL_ROW_37_121
*1117 TAP_TAPCELL_ROW_37_122
*1118 TAP_TAPCELL_ROW_37_123
*1119 TAP_TAPCELL_ROW_38_124
*1120 TAP_TAPCELL_ROW_38_125
*1121 TAP_TAPCELL_ROW_38_126
*1122 TAP_TAPCELL_ROW_38_127
*1123 TAP_TAPCELL_ROW_38_128
*1124 TAP_TAPCELL_ROW_38_129
*1125 TAP_TAPCELL_ROW_39_130
*1126 TAP_TAPCELL_ROW_39_131
*1127 TAP_TAPCELL_ROW_39_132
*1128 TAP_TAPCELL_ROW_39_133
*1129 TAP_TAPCELL_ROW_39_134
*1130 TAP_TAPCELL_ROW_39_135
*1131 TAP_TAPCELL_ROW_39_136
*1132 TAP_TAPCELL_ROW_39_137
*1133 TAP_TAPCELL_ROW_39_138
*1134 TAP_TAPCELL_ROW_39_139
*1135 TAP_TAPCELL_ROW_39_140
*1136 TAP_TAPCELL_ROW_39_141
*1137 _382_
*1138 _383_
*1139 _384_
*1140 _385_
*1141 _386_
*1142 _387_
*1143 _388_
*1144 _389_
*1145 _390_
*1146 _391_
*1147 _392_
*1148 _393_
*1149 _394_
*1150 _395_
*1151 _396_
*1152 _397_
*1153 _398_
*1154 _399_
*1155 _400_
*1156 _401_
*1157 _402_
*1158 _403_
*1159 _404_
*1160 _405_
*1161 _406_
*1162 _407_
*1163 _408_
*1164 _409_
*1165 _410_
*1166 _411_
*1167 _412_
*1168 _413_
*1169 _414_
*1170 _415_
*1171 _416_
*1172 _417_
*1173 _418_
*1174 _419_
*1175 _420_
*1176 _421_
*1177 _422_
*1178 _423_
*1179 _424_
*1180 _425_
*1181 _426_
*1182 _427_
*1183 _428_
*1184 _429_
*1185 _430_
*1186 _431_
*1187 _432_
*1188 _433_
*1189 _434_
*1190 _435_
*1191 _436_
*1192 _437_
*1193 _438_
*1194 _439_
*1195 _440_
*1196 _441_
*1197 _442_
*1198 _443_
*1199 _444_
*1200 _445_
*1201 _446_
*1202 _447_
*1203 _448_
*1204 _449_
*1205 _450_
*1206 _451_
*1207 _452_
*1208 _453_
*1209 _454_
*1210 _455_
*1211 _456_
*1212 _457_
*1213 _458_
*1214 _459_
*1215 _460_
*1216 _461_
*1217 _462_
*1218 _463_
*1219 _464_
*1220 _465_
*1221 _466_
*1222 _467_
*1223 _468_
*1224 _469_
*1225 _470_
*1226 _471_
*1227 _472_
*1228 _473_
*1229 _474_
*1230 _475_
*1231 _476_
*1232 _477_
*1233 _478_
*1234 _479_
*1235 _480_
*1236 _481_
*1237 _482_
*1238 _483_
*1239 _484_
*1240 _485_
*1241 _486_
*1242 _487_
*1243 _488_
*1244 _489_
*1245 _490_
*1246 _491_
*1247 _492_
*1248 _493_
*1249 _494_
*1250 _495_
*1251 _496_
*1252 _497_
*1253 _498_
*1254 _499_
*1255 _500_
*1256 _501_
*1257 _502_
*1258 _503_
*1259 _504_
*1260 _505_
*1261 _506_
*1262 _507_
*1263 _508_
*1264 _509_
*1265 _510_
*1266 _511_
*1267 _512_
*1268 _513_
*1269 _514_
*1270 _515_
*1271 _516_
*1272 _517_
*1273 _518_
*1274 _519_
*1275 _520_
*1276 _521_
*1277 _522_
*1278 _523_
*1279 _524_
*1280 _525_
*1281 _526_
*1282 _527_
*1283 _528_
*1284 _529_
*1285 _530_
*1286 _531_
*1287 _532_
*1288 _533_
*1289 _534_
*1290 _535_
*1291 _536_
*1292 _537_
*1293 _538_
*1294 _539_
*1295 _540_
*1296 _541_
*1297 _542_
*1298 _543_
*1299 _544_
*1300 _545_
*1301 _546_
*1302 _547_
*1303 _548_
*1304 _549_
*1305 _550_
*1306 _551_
*1307 _552_
*1308 _553_
*1309 _554_
*1310 _555_
*1311 _556_
*1312 _557_
*1313 _558_
*1314 _559_
*1315 _560_
*1316 _561_
*1317 _562_
*1318 _563_
*1319 _564_
*1320 _565_
*1321 _566_
*1322 _567_
*1323 _568_
*1324 _569_
*1325 _570_
*1326 _571_
*1327 _572_
*1328 _573_
*1329 _574_
*1330 _575_
*1331 _576_
*1332 _577_
*1333 _578_
*1334 _579_
*1335 _580_
*1336 _581_
*1337 _582_
*1338 _583_
*1339 _584_
*1340 _585_
*1341 _586_
*1342 _587_
*1343 _588_
*1344 _589_
*1345 _590_
*1346 _591_
*1347 _592_
*1348 _593_
*1349 _594_
*1350 _595_
*1351 _596_
*1352 _597_
*1353 _598_
*1354 _599_
*1355 _600_
*1356 _601_
*1357 _602_
*1358 _603_
*1359 _604_
*1360 _605_
*1361 _606_
*1362 _607_
*1363 _608_
*1364 _609_
*1365 _610_
*1366 _611_
*1367 _612_
*1368 _613_
*1369 _614_
*1370 _615_
*1371 _616_
*1372 _617_
*1373 _618_
*1374 _619_
*1375 _620_
*1376 _621_
*1377 _622_
*1378 _623_
*1379 _624_
*1380 _625_
*1381 _626_
*1382 _627_
*1383 _628_
*1384 _629_
*1385 _630_
*1386 _631_
*1387 _632_
*1388 _633_
*1389 _634_
*1390 _635_
*1391 _636_
*1392 _637_
*1393 _638_
*1394 _639_
*1395 _640_
*1396 _641_
*1397 _642_
*1398 _643_
*1399 _644_
*1400 _645_
*1401 _646_
*1402 _647_
*1403 _648_
*1404 _649_
*1405 _650_
*1406 _651_
*1407 _652_
*1408 _653_
*1409 _654_
*1410 _655_
*1411 _656_
*1412 _657_
*1413 _658_
*1414 _659_
*1415 _660_
*1416 _661_
*1417 _662_
*1418 _663_
*1419 _664_
*1420 _665_
*1421 _666_
*1422 _667_
*1423 _668_
*1424 _669_
*1425 _670_
*1426 _671_
*1427 _672_
*1428 _673_
*1429 _674_
*1430 _675_
*1431 _676_
*1432 _677_
*1433 _678_
*1434 _679_
*1435 _680_
*1436 _681_
*1437 _682_
*1438 _683_
*1439 _684_
*1440 _685_
*1441 _686_
*1442 _687_
*1443 _688_
*1444 _689_
*1445 _690_
*1446 _691_
*1447 _692_
*1448 _693_
*1449 _694_
*1450 _695_
*1451 _696_
*1452 _697_
*1453 _698_
*1454 _699_
*1455 _700_
*1456 _701_
*1457 _702_
*1458 _703_
*1459 _704_
*1460 _705_
*1461 _706_
*1462 _707_
*1463 _708_
*1464 _709_
*1465 _710_
*1466 _711_
*1467 _712_
*1468 _713_
*1469 _714_
*1470 _715_
*1471 _716_
*1472 _717_
*1473 _718_
*1474 _719_
*1475 _720_
*1476 _721_
*1477 _722_
*1478 _723_
*1479 _724_
*1480 _725_
*1481 _726_
*1482 _727_
*1483 _728_
*1484 _729_
*1485 _730_
*1486 _731_
*1487 _732_
*1488 _733_
*1489 _734_
*1490 _735_
*1491 _736_
*1492 _737_
*1493 _738_
*1494 _739_
*1495 _740_
*1496 _741_
*1497 _742_
*1498 _743_
*1499 _744_
*1500 _745_
*1501 _746_
*1502 _747_
*1503 _748_
*1504 _749_
*1505 _750_
*1506 _751_
*1507 _752_
*1508 _753_
*1509 _754_
*1510 _755_
*1511 _756_
*1512 _757_
*1513 _758_
*1514 _759_
*1515 _760_
*1516 _761_
*1517 _762_
*1518 _763_
*1519 _764_
*1520 _765_
*1521 _766_
*1522 _767_
*1523 _768_
*1524 _769_
*1525 _770_
*1526 _771_
*1527 _772_
*1528 _773_
*1529 _774_
*1530 _775_
*1531 _776_
*1532 _777_
*1533 _778_
*1534 _779_
*1535 _780_
*1536 _781_
*1537 _782_
*1538 _783_
*1539 _784_
*1540 _785_
*1541 _786_
*1542 _787_
*1543 _788_
*1544 _789_
*1545 _790_
*1546 _791_
*1547 _792_
*1548 _793_
*1549 _794_
*1550 _795_
*1551 _796_
*1552 _797_
*1553 _798_
*1554 _799_
*1555 _800_
*1556 _801_
*1557 _802_
*1558 _803_
*1559 _804_
*1560 _805_
*1561 _806_
*1562 _807_
*1563 _808_
*1564 _809_
*1565 _810_
*1566 _811_
*1567 _812_
*1568 _813_
*1569 _814_
*1570 _815_
*1571 _816_
*1572 _817_
*1573 _818_
*1574 _819_
*1575 _820_
*1576 _821_
*1577 _822_
*1578 _823_
*1579 _824_
*1580 _825_
*1581 _826_
*1582 _827_
*1583 _828_
*1584 _829_
*1585 _830_
*1586 _831_
*1587 _832_
*1588 _833_
*1589 _834_
*1590 _835_
*1591 _836_
*1592 _837_
*1593 _838_
*1594 _839_
*1595 _840_
*1596 _841_
*1597 _842_
*1598 _843_
*1599 _844_
*1600 _845_
*1601 _846_
*1602 _847_
*1603 _864_
*1604 _865_
*1605 _866_
*1606 fanout10
*1607 fanout11
*1608 fanout12
*1609 fanout13
*1610 fanout14
*1611 fanout15
*1612 fanout16
*1613 fanout17
*1614 fanout18
*1615 fanout19
*1616 fanout21
*1617 fanout22
*1618 fanout23
*1619 fanout24
*1620 fanout25
*1621 fanout26
*1622 fanout27
*1623 fanout28
*1624 fanout4
*1625 fanout5
*1626 fanout7
*1627 fanout8
*1628 fanout9
*1629 hold44
*1630 hold45
*1631 hold46
*1632 hold47
*1633 hold48
*1634 hold49
*1635 hold50
*1636 hold51
*1637 hold52
*1638 hold53
*1639 hold54
*1640 hold55
*1641 hold56
*1642 hold57
*1643 hold58
*1644 hold59
*1645 hold60
*1646 hold61
*1647 i_clk_buf
*1648 i_lfsrbuf\[0\]
*1649 i_lfsrbuf\[10\]
*1650 i_lfsrbuf\[11\]
*1651 i_lfsrbuf\[12\]
*1652 i_lfsrbuf\[13\]
*1653 i_lfsrbuf\[14\]
*1654 i_lfsrbuf\[1\]
*1655 i_lfsrbuf\[2\]
*1656 i_lfsrbuf\[3\]
*1657 i_lfsrbuf\[4\]
*1658 i_lfsrbuf\[5\]
*1659 i_lfsrbuf\[6\]
*1660 i_lfsrbuf\[7\]
*1661 i_lfsrbuf\[8\]
*1662 i_lfsrbuf\[9\]
*1663 input1
*1664 input2
*1665 input3
*1666 max_cap20
*1667 max_cap6
*1668 sprite
*1669 timing\.counter
*1670 timing\.counter_42
*1671 timing\.i_and
*1672 timing\.i_nand
*1673 tt_um_rebelmike_asic_odyssey
*1674 tt_um_rebelmike_asic_odyssey_29
*1675 tt_um_rebelmike_asic_odyssey_30
*1676 tt_um_rebelmike_asic_odyssey_31
*1677 tt_um_rebelmike_asic_odyssey_32
*1678 tt_um_rebelmike_asic_odyssey_33
*1679 tt_um_rebelmike_asic_odyssey_34
*1680 tt_um_rebelmike_asic_odyssey_35
*1681 tt_um_rebelmike_asic_odyssey_36
*1682 tt_um_rebelmike_asic_odyssey_37
*1683 tt_um_rebelmike_asic_odyssey_38
*1684 tt_um_rebelmike_asic_odyssey_39
*1685 tt_um_rebelmike_asic_odyssey_40
*1686 tt_um_rebelmike_asic_odyssey_41
*1687 tt_um_rebelmike_asic_odyssey_43

*PORTS
clk I
ena I
rst_n I
ui_in[0] I
ui_in[1] I
ui_in[2] I
ui_in[3] I
ui_in[4] I
ui_in[5] I
ui_in[6] I
ui_in[7] I
uio_in[0] I
uio_in[1] I
uio_in[2] I
uio_in[3] I
uio_in[4] I
uio_in[5] I
uio_in[6] I
uio_in[7] I
uio_oe[0] O
uio_oe[1] O
uio_oe[2] O
uio_oe[3] O
uio_oe[4] O
uio_oe[5] O
uio_oe[6] O
uio_oe[7] O
uio_out[0] O
uio_out[1] O
uio_out[2] O
uio_out[3] O
uio_out[4] O
uio_out[5] O
uio_out[6] O
uio_out[7] O
uo_out[0] O
uo_out[1] O
uo_out[2] O
uo_out[3] O
uo_out[4] O
uo_out[5] O
uo_out[6] O
uo_out[7] O

*D_NET *3 0.00606081
*CONN
*P clk I
*I *1647:A I *D sky130_fd_sc_hd__clkbuf_16
*CAP
1 clk 0.00111567
2 *1647:A 0.00111567
3 *1647:A *1427:B 0.000369092
4 *1647:A *1435:A2 0.00111666
5 *1647:A *1438:A 0.00087936
6 *1647:A *1497:B 0.000123589
7 *1647:A *1498:A 0.000155697
8 *1647:A *1595:D 0.000243554
9 *1647:A *1597:D 0.00058405
10 *1647:A *1602:CLK 3.46272e-05
11 *1647:A *1651:A 3.26889e-05
12 *1647:A *1663:A 4.14517e-05
13 *1647:A *424:219 0.000182563
14 *1647:A *486:6 6.61451e-05
*RES
1 clk *1647:A 34.4556 
*END

*D_NET *5 0.00106066
*CONN
*P rst_n I
*I *1663:A I *D sky130_fd_sc_hd__clkdlybuf4s25_1
*CAP
1 rst_n 0.000469058
2 *1663:A 0.000469058
3 *1663:A *1438:A 7.6901e-05
4 *1663:A *1648:A 4.18603e-06
5 *1647:A *1663:A 4.14517e-05
*RES
1 rst_n *1663:A 7.79883 
*END

*D_NET *12 0.00163337
*CONN
*P ui_in[6] I
*I *1664:A I *D sky130_fd_sc_hd__clkdlybuf4s25_1
*CAP
1 ui_in[6] 0.000786192
2 *1664:A 0.000786192
3 *1664:A *1665:A 6.09883e-05
4 *1664:A *518:26 0
*RES
1 ui_in[6] *1664:A 7.28383 
*END

*D_NET *13 0.00173864
*CONN
*P ui_in[7] I
*I *1665:A I *D sky130_fd_sc_hd__clkdlybuf4s25_1
*CAP
1 ui_in[7] 0.000699653
2 *1665:A 0.000699653
3 *1665:A *1435:A2 0
4 *1665:A *1497:A 9.99604e-05
5 *1665:A *1497:B 0.000110545
6 *1665:A *1622:A 2.46007e-05
7 *1665:A *518:26 4.32417e-05
8 *1664:A *1665:A 6.09883e-05
*RES
1 ui_in[7] *1665:A 8.73697 
*END

*D_NET *22 0.00191247
*CONN
*P uio_oe[0] O
*I *1673:LO O *D sky130_fd_sc_hd__conb_1
*CAP
1 uio_oe[0] 0.000611409
2 *1673:LO 0.000611409
3 uio_oe[0] uio_oe[1] 1.64446e-05
4 uio_oe[0] uio_out[6] 0.000425692
5 uio_oe[0] uio_out[7] 1.64446e-05
6 uio_oe[0] *1275:A 0
7 uio_oe[0] *1278:B 0.000161985
8 uio_oe[0] *1603:A 0
9 uio_oe[0] *445:10 0
10 uio_oe[0] *445:56 6.90876e-05
*RES
1 *1673:LO uio_oe[0] 13.9193 
*END

*D_NET *23 0.00212316
*CONN
*P uio_oe[1] O
*I *1674:LO O *D sky130_fd_sc_hd__conb_1
*CAP
1 uio_oe[1] 0.00090967
2 *1674:LO 0.00090967
3 uio_oe[1] uio_oe[2] 1.64446e-05
4 uio_oe[1] uio_oe[3] 6.63699e-05
5 uio_oe[1] uio_oe[4] 1.16578e-05
6 uio_oe[1] *1280:C 0.00011577
7 uio_oe[1] *1540:D 7.71334e-05
8 uio_oe[0] uio_oe[1] 1.64446e-05
*RES
1 *1674:LO uio_oe[1] 14.3122 
*END

*D_NET *24 0.00147542
*CONN
*P uio_oe[2] O
*I *1675:LO O *D sky130_fd_sc_hd__conb_1
*CAP
1 uio_oe[2] 0.000607076
2 *1675:LO 0.000607076
3 uio_oe[2] uio_oe[3] 0.000140043
4 uio_oe[2] uio_out[7] 0
5 uio_oe[2] *1540:D 8.85938e-05
6 uio_oe[2] *445:56 1.61831e-05
7 uio_oe[1] uio_oe[2] 1.64446e-05
*RES
1 *1675:LO uio_oe[2] 7.42203 
*END

*D_NET *25 0.00107149
*CONN
*P uio_oe[3] O
*I *1676:LO O *D sky130_fd_sc_hd__conb_1
*CAP
1 uio_oe[3] 0.000364878
2 *1676:LO 0.000364878
3 uio_oe[3] uio_oe[4] 7.72183e-05
4 uio_oe[3] *1540:D 5.81059e-05
5 uio_oe[1] uio_oe[3] 6.63699e-05
6 uio_oe[2] uio_oe[3] 0.000140043
*RES
1 *1676:LO uio_oe[3] 7.15517 
*END

*D_NET *26 0.00126248
*CONN
*P uio_oe[4] O
*I *1677:LO O *D sky130_fd_sc_hd__conb_1
*CAP
1 uio_oe[4] 0.000433548
2 *1677:LO 0.000433548
3 uio_oe[4] uio_oe[5] 0.000302074
4 uio_oe[4] *1280:A 4.43871e-06
5 uio_oe[4] *1280:C 0
6 uio_oe[1] uio_oe[4] 1.16578e-05
7 uio_oe[3] uio_oe[4] 7.72183e-05
*RES
1 *1677:LO uio_oe[4] 7.61403 
*END

*D_NET *27 0.00102077
*CONN
*P uio_oe[5] O
*I *1678:LO O *D sky130_fd_sc_hd__conb_1
*CAP
1 uio_oe[5] 0.000310765
2 *1678:LO 0.000310765
3 uio_oe[5] uio_oe[6] 9.71641e-05
4 uio_oe[4] uio_oe[5] 0.000302074
*RES
1 *1678:LO uio_oe[5] 7.33383 
*END

*D_NET *28 0.000744961
*CONN
*P uio_oe[6] O
*I *1679:LO O *D sky130_fd_sc_hd__conb_1
*CAP
1 uio_oe[6] 0.000282506
2 *1679:LO 0.000282506
3 uio_oe[6] uio_oe[7] 8.27846e-05
4 uio_oe[5] uio_oe[6] 9.71641e-05
*RES
1 *1679:LO uio_oe[6] 5.62037 
*END

*D_NET *29 0.000584477
*CONN
*P uio_oe[7] O
*I *1687:HI O *D sky130_fd_sc_hd__conb_1
*CAP
1 uio_oe[7] 0.000250846
2 *1687:HI 0.000250846
3 uio_oe[6] uio_oe[7] 8.27846e-05
*RES
1 *1687:HI uio_oe[7] 5.47597 
*END

*D_NET *30 0.00201761
*CONN
*P uio_out[0] O
*I *1680:LO O *D sky130_fd_sc_hd__conb_1
*CAP
1 uio_out[0] 0.000602208
2 *1680:LO 0.000602208
3 uio_out[0] uio_out[1] 9.71641e-05
4 uio_out[0] uo_out[3] 0.000135063
5 uio_out[0] uo_out[5] 5.56205e-06
6 uio_out[0] uo_out[6] 0.000234174
7 uio_out[0] uo_out[7] 0.000331136
8 uio_out[0] *1202:A 0
9 uio_out[0] *1605:A 1.00941e-05
10 uio_out[0] *172:22 0
*RES
1 *1680:LO uio_out[0] 6.31957 
*END

*D_NET *31 0.00165059
*CONN
*P uio_out[1] O
*I *1681:LO O *D sky130_fd_sc_hd__conb_1
*CAP
1 uio_out[1] 0.000560036
2 *1681:LO 0.000560036
3 uio_out[1] uio_out[2] 0.000290937
4 uio_out[1] uio_out[3] 8.8266e-05
5 uio_out[1] uio_out[4] 0
6 uio_out[1] *1268:A1 4.99619e-05
7 uio_out[1] *1268:A2 4.18603e-06
8 uio_out[1] *172:22 0
9 uio_out[1] *450:29 0
10 uio_out[0] uio_out[1] 9.71641e-05
*RES
1 *1681:LO uio_out[1] 8.49343 
*END

*D_NET *32 0.0014356
*CONN
*P uio_out[2] O
*I *1682:LO O *D sky130_fd_sc_hd__conb_1
*CAP
1 uio_out[2] 0.000414148
2 *1682:LO 0.000414148
3 uio_out[2] uio_out[3] 0.000127291
4 uio_out[2] *1267:A 1.58876e-05
5 uio_out[2] *1267:B 4.82919e-05
6 uio_out[2] *1268:A1 0.000124895
7 uio_out[2] *1268:A2 0
8 uio_out[2] *1605:A 0
9 uio_out[1] uio_out[2] 0.000290937
*RES
1 *1682:LO uio_out[2] 10.645 
*END

*D_NET *33 0.000983678
*CONN
*P uio_out[3] O
*I *1683:LO O *D sky130_fd_sc_hd__conb_1
*CAP
1 uio_out[3] 0.000349301
2 *1683:LO 0.000349301
3 uio_out[3] uio_out[4] 6.09883e-05
4 uio_out[3] *1268:A2 8.53113e-06
5 uio_out[1] uio_out[3] 8.8266e-05
6 uio_out[2] uio_out[3] 0.000127291
*RES
1 *1683:LO uio_out[3] 9.10003 
*END

*D_NET *34 0.000847226
*CONN
*P uio_out[4] O
*I *1684:LO O *D sky130_fd_sc_hd__conb_1
*CAP
1 uio_out[4] 0.000324007
2 *1684:LO 0.000324007
3 uio_out[4] uio_out[5] 0.000119363
4 uio_out[4] uio_out[6] 0
5 uio_out[4] *1275:C 1.88602e-05
6 uio_out[1] uio_out[4] 0
7 uio_out[3] uio_out[4] 6.09883e-05
*RES
1 *1684:LO uio_out[4] 5.67863 
*END

*D_NET *35 0.00125961
*CONN
*P uio_out[5] O
*I *1685:LO O *D sky130_fd_sc_hd__conb_1
*CAP
1 uio_out[5] 0.000440531
2 *1685:LO 0.000440531
3 uio_out[5] uio_out[6] 8.43282e-05
4 uio_out[5] *1275:A 8.8266e-05
5 uio_out[5] *1275:C 8.65905e-05
6 uio_out[4] uio_out[5] 0.000119363
*RES
1 *1685:LO uio_out[5] 8.2775 
*END

*D_NET *36 0.00280863
*CONN
*P uio_out[6] O
*I *1686:LO O *D sky130_fd_sc_hd__conb_1
*CAP
1 uio_out[6] 0.000837218
2 *1686:LO 0.000837218
3 uio_out[6] uio_out[7] 3.7324e-05
4 uio_out[6] *1276:A2 8.71577e-05
5 uio_out[6] *1276:B1 4.8854e-05
6 uio_out[6] *1538:D 1.88904e-05
7 uio_out[6] *434:95 0.000181782
8 uio_out[6] *434:101 0.000115759
9 uio_out[6] *445:56 4.82863e-05
10 uio_out[6] *540:54 6.60458e-05
11 uio_out[6] *540:58 2.00711e-05
12 uio_oe[0] uio_out[6] 0.000425692
13 uio_out[4] uio_out[6] 0
14 uio_out[5] uio_out[6] 8.43282e-05
*RES
1 *1686:LO uio_out[6] 15.7274 
*END

*D_NET *37 0.000706234
*CONN
*P uio_out[7] O
*I *1603:X O *D sky130_fd_sc_hd__buf_2
*CAP
1 uio_out[7] 0.000311547
2 *1603:X 0.000311547
3 uio_out[7] *1603:A 2.937e-05
4 uio_oe[0] uio_out[7] 1.64446e-05
5 uio_oe[2] uio_out[7] 0
6 uio_out[6] uio_out[7] 3.7324e-05
*RES
1 *1603:X uio_out[7] 6.7737 
*END

*D_NET *38 0.00402246
*CONN
*P uo_out[0] O
*I *1580:Q O *D sky130_fd_sc_hd__dfxtp_2
*CAP
1 uo_out[0] 0.00165288
2 *1580:Q 0.00165288
3 uo_out[0] uo_out[1] 1.64446e-05
4 uo_out[0] uo_out[2] 0
5 uo_out[0] uo_out[3] 0
6 uo_out[0] uo_out[4] 0
7 uo_out[0] uo_out[5] 7.12806e-05
8 uo_out[0] *1436:B2 0
9 uo_out[0] *1496:A 6.03407e-05
10 uo_out[0] *518:30 0.00056863
*RES
1 *1580:Q uo_out[0] 8.56997 
*END

*D_NET *39 0.00177134
*CONN
*P uo_out[1] O
*I *1578:Q O *D sky130_fd_sc_hd__dfxtp_2
*CAP
1 uo_out[1] 0.00049327
2 *1578:Q 0.00049327
3 uo_out[1] uo_out[2] 0.000696106
4 uo_out[1] uo_out[5] 1.79536e-05
5 uo_out[1] *1495:B 5.42991e-05
6 uo_out[1] *1577:D 0
7 uo_out[0] uo_out[1] 1.64446e-05
*RES
1 *1578:Q uo_out[1] 9.48677 
*END

*D_NET *40 0.0044661
*CONN
*P uo_out[2] O
*I *1576:Q O *D sky130_fd_sc_hd__dfxtp_2
*CAP
1 uo_out[2] 0.00133241
2 *1576:Q 0.00133241
3 uo_out[2] uo_out[3] 2.05723e-05
4 uo_out[2] uo_out[4] 0.000535901
5 uo_out[2] uo_out[6] 5.73696e-05
6 uo_out[2] *1427:B 6.28765e-05
7 uo_out[2] *1497:A 0
8 uo_out[2] *433:10 0
9 uo_out[2] *582:45 0.000428457
10 uo_out[0] uo_out[2] 0
11 uo_out[1] uo_out[2] 0.000696106
*RES
1 *1576:Q uo_out[2] 11.4316 
*END

*D_NET *41 0.0026872
*CONN
*P uo_out[3] O
*I *1604:X O *D sky130_fd_sc_hd__buf_2
*CAP
1 uo_out[3] 0.000922136
2 *1604:X 0.000922136
3 uo_out[3] uo_out[4] 5.82033e-05
4 uo_out[3] uo_out[6] 0.000277377
5 uo_out[3] *1265:C 8.77516e-05
6 uo_out[3] *1424:A 4.60584e-05
7 uo_out[3] *1424:B 1.0124e-05
8 uo_out[3] *1429:A 5.05437e-05
9 uo_out[3] *1436:A1 4.94457e-05
10 uo_out[3] *1604:A 0.000107786
11 uo_out[3] *1605:A 0
12 uio_out[0] uo_out[3] 0.000135063
13 uo_out[0] uo_out[3] 0
14 uo_out[2] uo_out[3] 2.05723e-05
*RES
1 *1604:X uo_out[3] 14.0564 
*END

*D_NET *42 0.00512112
*CONN
*P uo_out[4] O
*I *1579:Q O *D sky130_fd_sc_hd__dfxtp_2
*CAP
1 uo_out[4] 0.00109475
2 *1579:Q 0.00109475
3 uo_out[4] uo_out[5] 0.00139588
4 uo_out[4] uo_out[6] 0.000575065
5 uo_out[4] *1427:A 7.6526e-05
6 uo_out[4] *1436:A1 0.000290049
7 uo_out[4] *433:10 0
8 uo_out[0] uo_out[4] 0
9 uo_out[2] uo_out[4] 0.000535901
10 uo_out[3] uo_out[4] 5.82033e-05
*RES
1 *1579:Q uo_out[4] 9.83063 
*END

*D_NET *43 0.00397536
*CONN
*P uo_out[5] O
*I *1577:Q O *D sky130_fd_sc_hd__dfxtp_2
*CAP
1 uo_out[5] 0.00113408
2 *1577:Q 0.00113408
3 uo_out[5] uo_out[6] 0.000200884
4 uo_out[5] *1202:A 0
5 uo_out[5] *1436:A1 1.56428e-05
6 uio_out[0] uo_out[5] 5.56205e-06
7 uo_out[0] uo_out[5] 7.12806e-05
8 uo_out[1] uo_out[5] 1.79536e-05
9 uo_out[4] uo_out[5] 0.00139588
*RES
1 *1577:Q uo_out[5] 8.13757 
*END

*D_NET *44 0.00281483
*CONN
*P uo_out[6] O
*I *1575:Q O *D sky130_fd_sc_hd__dfxtp_2
*CAP
1 uo_out[6] 0.000696836
2 *1575:Q 0.000696836
3 uo_out[6] uo_out[7] 7.62847e-05
4 uio_out[0] uo_out[6] 0.000234174
5 uo_out[2] uo_out[6] 5.73696e-05
6 uo_out[3] uo_out[6] 0.000277377
7 uo_out[4] uo_out[6] 0.000575065
8 uo_out[5] uo_out[6] 0.000200884
*RES
1 *1575:Q uo_out[6] 6.75783 
*END

*D_NET *45 0.00123435
*CONN
*P uo_out[7] O
*I *1605:X O *D sky130_fd_sc_hd__buf_2
*CAP
1 uo_out[7] 0.000407611
2 *1605:X 0.000407611
3 uo_out[7] *1605:A 1.17036e-05
4 uo_out[7] *172:22 0
5 uio_out[0] uo_out[7] 0.000331136
6 uo_out[6] uo_out[7] 7.62847e-05
*RES
1 *1605:X uo_out[7] 5.7673 
*END

*D_NET *46 0.000551247
*CONN
*I *1526:GATE I *D sky130_fd_sc_hd__dlclkp_2
*I *1204:Y O *D sky130_fd_sc_hd__inv_2
*CAP
1 *1526:GATE 0.000185845
2 *1204:Y 0.000185845
3 *1526:GATE *602:CLK 0.000179557
4 *1526:GATE *602:GATE 0
5 *1526:GATE *1204:A 0
6 *1526:GATE *297:45 0
*RES
1 *1204:Y *1526:GATE 10.62 
*END

*D_NET *47 0.000327624
*CONN
*I *602:GATE I *D sky130_fd_sc_hd__dlclkp_2
*I *1213:X O *D sky130_fd_sc_hd__and4b_2
*CAP
1 *602:GATE 0.000117572
2 *1213:X 0.000117572
3 *602:GATE *1204:A 7.23533e-05
4 *602:GATE *585:145 2.01259e-05
5 *1526:GATE *602:GATE 0
*RES
1 *1213:X *602:GATE 8.865 
*END

*D_NET *48 0.00139978
*CONN
*I *1546:D I *D sky130_fd_sc_hd__dfrtp_2
*I *1141:Y O *D sky130_fd_sc_hd__inv_2
*CAP
1 *1546:D 0.000598842
2 *1141:Y 0.000598842
3 *1546:D *1141:A 0.000102935
4 *1546:D *1669:clk 9.91623e-05
*RES
1 *1141:Y *1546:D 10.685 
*END

*D_NET *49 0.000518441
*CONN
*I *1547:D I *D sky130_fd_sc_hd__dfrtp_2
*I *1157:X O *D sky130_fd_sc_hd__xor2_2
*CAP
1 *1547:D 0.00017234
2 *1157:X 0.00017234
3 *1547:D *1297:B 2.68526e-05
4 *1547:D *1547:CLK 6.29441e-05
5 *1547:D *1548:RESET_B 8.39647e-05
*RES
1 *1157:X *1547:D 10.575 
*END

*D_NET *50 0.000617774
*CONN
*I *1548:D I *D sky130_fd_sc_hd__dfrtp_2
*I *1160:Y O *D sky130_fd_sc_hd__nor2_2
*CAP
1 *1548:D 0.000258565
2 *1160:Y 0.000258565
3 *1548:D *1159:A2 0
4 *1548:D *1160:A 6.69608e-06
5 *1548:D *1548:CLK 7.08493e-05
6 *1548:D *588:18 2.30998e-05
*RES
1 *1160:Y *1548:D 7.295 
*END

*D_NET *51 0.000395249
*CONN
*I *1549:D I *D sky130_fd_sc_hd__dfrtp_2
*I *1163:Y O *D sky130_fd_sc_hd__nor2_2
*CAP
1 *1549:D 0.000108514
2 *1163:Y 0.000108514
3 *1549:D *1163:A 4.77701e-05
4 *1549:D *1163:B 8.49205e-05
5 *1549:D *466:20 4.55308e-05
*RES
1 *1163:Y *1549:D 9.12 
*END

*D_NET *52 0.000960688
*CONN
*I *1550:D I *D sky130_fd_sc_hd__dfrtp_2
*I *1164:Y O *D sky130_fd_sc_hd__xnor2_2
*CAP
1 *1550:D 0.000296269
2 *1164:Y 0.000296269
3 *1550:D *1164:A 0.000201508
4 *1550:D *1166:A2 0
5 *1550:D *1549:RESET_B 4.05377e-05
6 *1550:D *1672:C 0.000121487
7 *1550:D *1672:D 4.61701e-06
8 *1550:D *128:14 0
9 *1550:D *129:21 0
*RES
1 *1164:Y *1550:D 12.705 
*END

*D_NET *53 0.00102146
*CONN
*I *1551:D I *D sky130_fd_sc_hd__dfrtp_2
*I *1167:Y O *D sky130_fd_sc_hd__nor2_2
*CAP
1 *1551:D 0.00022503
2 *1167:Y 0.00022503
3 *1551:D *1167:A 3.55416e-05
4 *1551:D *1220:B1 7.85951e-05
5 *1551:D *1220:B2 3.61103e-05
6 *1551:D *1646:A 6.84996e-05
7 *1551:D *130:14 2.29417e-05
8 *1551:D *144:10 4.05312e-05
9 *1551:D *246:10 7.23602e-05
10 *1551:D *538:10 0.000115046
11 *1551:D *585:43 0.000101778
*RES
1 *1167:Y *1551:D 12.405 
*END

*D_NET *54 0.000280223
*CONN
*I *1552:D I *D sky130_fd_sc_hd__dfrtp_2
*I *1170:X O *D sky130_fd_sc_hd__and2_2
*CAP
1 *1552:D 7.13253e-05
2 *1170:X 7.13253e-05
3 *1552:D *1170:B 3.67924e-05
4 *1552:D *579:52 7.00115e-05
5 *1552:D *580:36 3.07686e-05
*RES
1 *1170:X *1552:D 8.56875 
*END

*D_NET *55 0.000308419
*CONN
*I *1553:D I *D sky130_fd_sc_hd__dfrtp_2
*I *1171:Y O *D sky130_fd_sc_hd__xnor2_2
*CAP
1 *1553:D 3.24279e-05
2 *1171:Y 3.24279e-05
3 *1553:D *1171:A 0.000162311
4 *1553:D *583:76 8.12524e-05
*RES
1 *1171:Y *1553:D 4.685 
*END

*D_NET *56 0.00123322
*CONN
*I *1527:GATE I *D sky130_fd_sc_hd__dlclkp_2
*I *1524:X O *D sky130_fd_sc_hd__and3b_2
*CAP
1 *1527:GATE 0.000275229
2 *1524:X 0.000275229
3 *1527:GATE *1218:B1 2.52128e-05
4 *1527:GATE *1218:B2 3.64998e-06
5 *1527:GATE *1218:C1 2.30292e-05
6 *1527:GATE *1547:RESET_B 3.01311e-05
7 *1527:GATE *122:25 0.000198939
8 *1527:GATE *536:48 6.21553e-05
9 *1527:GATE *536:50 8.98421e-05
10 *1527:GATE *581:64 4.82919e-05
11 *1527:GATE *581:108 0
12 *1527:GATE *583:39 0.000201508
*RES
1 *1524:X *1527:GATE 12.75 
*END

*D_NET *57 0.00186179
*CONN
*I *1530:D I *D sky130_fd_sc_hd__dfxtp_2
*I *1251:X O *D sky130_fd_sc_hd__and3_2
*CAP
1 *1530:D 0.000521772
2 *1251:X 0.000521772
3 *1530:D *1251:C 0.000124895
4 *1530:D *1253:C 5.11148e-06
5 *1530:D *1406:A2 4.82863e-05
6 *1530:D *1406:A3 8.2852e-05
7 *1530:D *1407:B 0.000192564
8 *1530:D *1409:C_N 7.81221e-05
9 *1530:D *1412:A 0
10 *1530:D *1530:CLK 1.43717e-05
11 *1530:D *172:22 0.000177644
12 *1530:D *439:32 4.51849e-05
13 *1530:D *439:48 4.92096e-05
*RES
1 *1251:X *1530:D 16.4888 
*END

*D_NET *58 0.00031777
*CONN
*I *1531:D I *D sky130_fd_sc_hd__dfxtp_2
*I *1254:X O *D sky130_fd_sc_hd__and3_2
*CAP
1 *1531:D 5.9483e-05
2 *1254:X 5.9483e-05
3 *1531:D *1252:A1 5.20335e-05
4 *1531:D *1254:C 5.23024e-05
5 *1531:D *1370:B1 9.44681e-05
*RES
1 *1254:X *1531:D 8.80875 
*END

*D_NET *59 0.000331111
*CONN
*I *1532:D I *D sky130_fd_sc_hd__dfxtp_2
*I *1257:X O *D sky130_fd_sc_hd__and3_2
*CAP
1 *1532:D 8.68918e-05
2 *1257:X 8.68918e-05
3 *1532:D *1370:B1 1.43717e-05
4 *1532:D *1575:D 3.47837e-05
5 *1532:D *173:10 9.37731e-05
6 *1532:D *173:33 1.4399e-05
*RES
1 *1257:X *1532:D 8.91375 
*END

*D_NET *60 0.000908958
*CONN
*I *1533:D I *D sky130_fd_sc_hd__dfxtp_2
*I *1260:X O *D sky130_fd_sc_hd__and3_2
*CAP
1 *1533:D 0.000221095
2 *1260:X 0.000221095
3 *1533:D *1258:A1 8.73389e-06
4 *1533:D *1259:A 4.66108e-05
5 *1533:D *1260:A 0.000206251
6 *1533:D *1260:B 8.81825e-05
7 *1533:D *1260:C 1.77665e-05
8 *1533:D *173:10 8.99611e-05
9 *1533:D *437:8 9.26175e-06
*RES
1 *1260:X *1533:D 12.0938 
*END

*D_NET *61 0.00178501
*CONN
*I *1534:D I *D sky130_fd_sc_hd__dfxtp_2
*I *1263:X O *D sky130_fd_sc_hd__and3_2
*CAP
1 *1534:D 0.000383966
2 *1263:X 0.000383966
3 *1534:D *1253:B 0.000114492
4 *1534:D *1261:A1 4.82919e-05
5 *1534:D *1261:B1 1.4683e-05
6 *1534:D *1262:B 4.66108e-05
7 *1534:D *1262:C 0.000115751
8 *1534:D *1263:A 0
9 *1534:D *1263:B 6.97118e-05
10 *1534:D *1263:C 0.0001063
11 *1534:D *1436:B2 0.00015829
12 *1534:D *173:10 0.000185474
13 *1534:D *434:36 3.93926e-05
14 *1534:D *434:44 0.000118081
15 *1534:D *434:74 0
*RES
1 *1263:X *1534:D 16.635 
*END

*D_NET *62 0.000736568
*CONN
*I *1535:D I *D sky130_fd_sc_hd__dfxtp_2
*I *1266:X O *D sky130_fd_sc_hd__and3_2
*CAP
1 *1535:D 0.000174769
2 *1266:X 0.000174769
3 *1535:D *1264:B1 4.82919e-05
4 *1535:D *1266:B 0
5 *1535:D *1266:C 0.00012657
6 *1535:D *434:74 1.61232e-05
7 *1535:D *436:67 1.07797e-05
8 *1535:D *450:8 7.03046e-05
9 *1535:D *450:12 4.66108e-05
10 *1535:D *450:54 6.83488e-05
*RES
1 *1266:X *1535:D 10.4888 
*END

*D_NET *63 0.00103388
*CONN
*I *1536:D I *D sky130_fd_sc_hd__dfxtp_2
*I *1269:X O *D sky130_fd_sc_hd__a21bo_2
*CAP
1 *1536:D 0.000224139
2 *1269:X 0.000224139
3 *1536:D *1268:A2 0.000123225
4 *1536:D *1269:A2 5.0751e-05
5 *1536:D *434:80 8.14761e-05
6 *1536:D *434:93 0.00020525
7 *1536:D *449:62 0.0001249
*RES
1 *1269:X *1536:D 8.51375 
*END

*D_NET *64 0.000352026
*CONN
*I *1537:D I *D sky130_fd_sc_hd__dfxtp_2
*I *1272:X O *D sky130_fd_sc_hd__and3_2
*CAP
1 *1537:D 0.000145086
2 *1272:X 0.000145086
3 *1537:D *1411:B 0
4 *1537:D *1537:CLK 4.18603e-06
5 *1537:D *448:12 7.70553e-06
6 *1537:D *449:27 0
7 *1537:D *586:147 4.99619e-05
*RES
1 *1272:X *1537:D 9.42375 
*END

*D_NET *65 0.000926067
*CONN
*I *1538:D I *D sky130_fd_sc_hd__dfxtp_2
*I *1275:X O *D sky130_fd_sc_hd__and3_2
*CAP
1 *1538:D 0.000226504
2 *1275:X 0.000226504
3 *1538:D *1275:B 8.71001e-05
4 *1538:D *1275:C 0
5 *1538:D *434:95 0.000315035
6 *1538:D *540:54 5.20335e-05
7 uio_out[6] *1538:D 1.88904e-05
*RES
1 *1275:X *1538:D 11.9888 
*END

*D_NET *66 0.00123042
*CONN
*I *1539:D I *D sky130_fd_sc_hd__dfxtp_2
*I *1278:X O *D sky130_fd_sc_hd__and3_2
*CAP
1 *1539:D 0.00027601
2 *1278:X 0.00027601
3 *1539:D *1603:A 0.000114492
4 *1539:D *434:101 0
5 *1539:D *434:136 0.000162202
6 *1539:D *446:12 0.000135204
7 *1539:D *447:68 0.000107176
8 *1539:D *540:54 0.000159321
*RES
1 *1278:X *1539:D 13.3088 
*END

*D_NET *67 0.00167204
*CONN
*I *1540:D I *D sky130_fd_sc_hd__dfxtp_2
*I *1281:X O *D sky130_fd_sc_hd__and3_2
*CAP
1 *1540:D 0.000325164
2 *1281:X 0.000325164
3 *1540:D *1279:A1 4.82863e-05
4 *1540:D *1279:A2 4.82863e-05
5 *1540:D *1280:C 0
6 *1540:D *1281:B 9.52646e-05
7 *1540:D *1281:C 6.07412e-05
8 *1540:D *1540:CLK 0.000159964
9 *1540:D *445:10 0
10 *1540:D *445:56 0.000385333
11 uio_oe[1] *1540:D 7.71334e-05
12 uio_oe[2] *1540:D 8.85938e-05
13 uio_oe[3] *1540:D 5.81059e-05
*RES
1 *1281:X *1540:D 15.705 
*END

*D_NET *68 0.000430554
*CONN
*I *1541:D I *D sky130_fd_sc_hd__dfxtp_2
*I *1284:X O *D sky130_fd_sc_hd__and3_2
*CAP
1 *1541:D 8.52482e-05
2 *1284:X 8.52482e-05
3 *1541:D *1542:CLK 4.82919e-05
4 *1541:D *1621:A 0.000106272
5 *1541:D *434:142 0.000105494
*RES
1 *1284:X *1541:D 5.78 
*END

*D_NET *69 0.000729251
*CONN
*I *1542:D I *D sky130_fd_sc_hd__dfxtp_2
*I *1287:X O *D sky130_fd_sc_hd__and3_2
*CAP
1 *1542:D 0.000153134
2 *1287:X 0.000153134
3 *1542:D *1287:B 9.54399e-05
4 *1542:D *1315:B1 2.97122e-05
5 *1542:D *1542:CLK 8.7152e-06
6 *1542:D *1621:A 7.52294e-05
7 *1542:D *442:23 6.28765e-05
8 *1542:D *444:31 7.27408e-05
9 *1542:D *586:50 7.82691e-05
*RES
1 *1287:X *1542:D 11.595 
*END

*D_NET *70 0.000474167
*CONN
*I *1543:D I *D sky130_fd_sc_hd__dfxtp_2
*I *1290:X O *D sky130_fd_sc_hd__and3_2
*CAP
1 *1543:D 0.000119424
2 *1290:X 0.000119424
3 *1543:D *1288:B1 0.00016163
4 *1543:D *1543:CLK 7.36892e-05
5 *1543:D *538:66 0
*RES
1 *1290:X *1543:D 9.76875 
*END

*D_NET *71 0.000510826
*CONN
*I *1544:D I *D sky130_fd_sc_hd__dfxtp_2
*I *1293:X O *D sky130_fd_sc_hd__and3_2
*CAP
1 *1544:D 0.000133849
2 *1293:X 0.000133849
3 *1544:D *1271:B 4.43871e-06
4 *1544:D *1406:S0 4.66108e-05
5 *1544:D *338:10 5.21458e-05
6 *1544:D *435:51 0.000139933
*RES
1 *1293:X *1544:D 10.005 
*END

*D_NET *72 0.000845431
*CONN
*I *1545:D I *D sky130_fd_sc_hd__dfxtp_2
*I *1296:X O *D sky130_fd_sc_hd__and3_2
*CAP
1 *1545:D 0.000165546
2 *1296:X 0.000165546
3 *1545:D *1293:A 0
4 *1545:D *1296:B 8.94992e-05
5 *1545:D *1407:A 7.26475e-06
6 *1545:D *1417:A2 0.000160651
7 *1545:D *1544:CLK 5.01066e-05
8 *1545:D *538:92 0.000206817
9 *1545:D *540:33 0
*RES
1 *1296:X *1545:D 11.6138 
*END

*D_NET *73 0.00103717
*CONN
*I *1554:D I *D sky130_fd_sc_hd__dfxtp_2
*I *1297:Y O *D sky130_fd_sc_hd__nor2_2
*CAP
1 *1554:D 0.000286763
2 *1297:Y 0.000286763
3 *1554:D *1157:B 0
4 *1554:D *1297:A 0.000452229
5 *1554:D *1297:B 1.14169e-05
*RES
1 *1297:Y *1554:D 12.9937 
*END

*D_NET *74 0.000350241
*CONN
*I *1555:D I *D sky130_fd_sc_hd__dfxtp_2
*I *1303:X O *D sky130_fd_sc_hd__and3b_2
*CAP
1 *1555:D 7.28277e-05
2 *1303:X 7.28277e-05
3 *1555:D *250:12 0.000189719
4 *1555:D *586:64 1.48666e-05
*RES
1 *1303:X *1555:D 4.955 
*END

*D_NET *75 0.00172735
*CONN
*I *1556:D I *D sky130_fd_sc_hd__dfxtp_2
*I *1309:X O *D sky130_fd_sc_hd__and3_2
*CAP
1 *1556:D 0.00033866
2 *1309:X 0.00033866
3 *1556:D *1309:A 4.82863e-05
4 *1556:D *1519:A 3.18219e-05
5 *1556:D *251:43 0.000499496
6 *1556:D *473:42 6.32842e-05
7 *1556:D *475:10 0.000311294
8 *1556:D *475:36 4.82863e-05
9 *1556:D *536:46 4.75576e-05
*RES
1 *1309:X *1556:D 14.7788 
*END

*D_NET *76 0.00105872
*CONN
*I *1557:D I *D sky130_fd_sc_hd__dfxtp_2
*I *1316:X O *D sky130_fd_sc_hd__and2b_2
*CAP
1 *1557:D 0.000306896
2 *1316:X 0.000306896
3 *1557:D *476:12 0.00013788
4 *1557:D *476:22 0.000307043
*RES
1 *1316:X *1557:D 7.79375 
*END

*D_NET *77 0.00191955
*CONN
*I *1558:D I *D sky130_fd_sc_hd__dfxtp_2
*I *1321:Y O *D sky130_fd_sc_hd__nor3_2
*CAP
1 *1558:D 0.000588261
2 *1321:Y 0.000588261
3 *1558:D *1304:A_N 0.000148054
4 *1558:D *1320:A2 0.000120655
5 *1558:D *1321:A 1.7635e-05
6 *1558:D *262:37 0.000148779
7 *1558:D *263:12 0.000192125
8 *1558:D *265:8 7.3664e-05
9 *1558:D *265:23 2.29518e-05
10 *1558:D *477:8 1.91597e-05
*RES
1 *1321:Y *1558:D 18.3937 
*END

*D_NET *78 0.000831791
*CONN
*I *1559:D I *D sky130_fd_sc_hd__dfxtp_2
*I *1326:X O *D sky130_fd_sc_hd__and3_2
*CAP
1 *1559:D 0.000218792
2 *1326:X 0.000218792
3 *1559:D *267:10 0
4 *1559:D *478:6 0.000394207
5 *1559:D *540:71 0
*RES
1 *1326:X *1559:D 11.9137 
*END

*D_NET *79 0.000643346
*CONN
*I *1560:D I *D sky130_fd_sc_hd__dfxtp_2
*I *1331:Y O *D sky130_fd_sc_hd__nor3_2
*CAP
1 *1560:D 0.000157434
2 *1331:Y 0.000157434
3 *1560:D *1328:A 0
4 *1560:D *1559:CLK 1.43717e-05
5 *1560:D *134:19 0.000212505
6 *1560:D *134:23 5.33085e-05
7 *1560:D *270:20 0
8 *1560:D *273:10 4.82919e-05
9 *1560:D *479:10 0
*RES
1 *1331:Y *1560:D 10.6987 
*END

*D_NET *80 0.000723997
*CONN
*I *1561:D I *D sky130_fd_sc_hd__dfxtp_2
*I *1334:X O *D sky130_fd_sc_hd__o31a_2
*CAP
1 *1561:D 0.000214066
2 *1334:X 0.000214066
3 *1561:D *1334:A2 3.60024e-06
4 *1561:D *1561:CLK 0.000200164
5 *1561:D *274:10 9.21008e-05
*RES
1 *1334:X *1561:D 10.8787 
*END

*D_NET *81 0.00200314
*CONN
*I *1562:D I *D sky130_fd_sc_hd__dfxtp_2
*I *1339:X O *D sky130_fd_sc_hd__and3_2
*CAP
1 *1562:D 0.000414822
2 *1339:X 0.000414822
3 *1562:D *1332:B1 0.000112284
4 *1562:D *1334:A2 2.26771e-05
5 *1562:D *1334:A3 5.90239e-06
6 *1562:D *1334:B1 0.000339075
7 *1562:D *1337:A2 0.000177151
8 *1562:D *1339:A 0.000271077
9 *1562:D *134:33 0
10 *1562:D *426:124 8.89542e-05
11 *1562:D *426:184 0.000156371
*RES
1 *1339:X *1562:D 17.2838 
*END

*D_NET *82 0.000213766
*CONN
*I *1563:D I *D sky130_fd_sc_hd__dfxtp_2
*I *1343:Y O *D sky130_fd_sc_hd__nor2_2
*CAP
1 *1563:D 7.69751e-05
2 *1343:Y 7.69751e-05
3 *1563:D *426:136 3.11187e-05
4 *1563:D *426:142 2.86975e-05
*RES
1 *1343:Y *1563:D 4.56875 
*END

*D_NET *83 0.00175927
*CONN
*I *1564:D I *D sky130_fd_sc_hd__dfxtp_2
*I *1353:Y O *D sky130_fd_sc_hd__nor2_2
*CAP
1 *1564:D 0.000471296
2 *1353:Y 0.000471296
3 *1564:D *1460:A1 0
4 *1564:D *1476:A2 0.00011381
5 *1564:D *1476:B1 6.30268e-05
6 *1564:D *1580:D 9.50342e-06
7 *1564:D *283:14 5.02217e-05
8 *1564:D *371:10 0.000538178
9 *1564:D *451:40 0
10 *1564:D *453:36 4.1934e-05
*RES
1 *1353:Y *1564:D 16.5637 
*END

*D_NET *84 0.000431999
*CONN
*I *1565:D I *D sky130_fd_sc_hd__dfxtp_2
*I *1355:Y O *D sky130_fd_sc_hd__a21oi_2
*CAP
1 *1565:D 0.000115438
2 *1355:Y 0.000115438
3 *1565:D *1179:B 9.044e-05
4 *1565:D *1180:B 0
5 *1565:D *1355:A2 2.75229e-05
6 *1565:D *1565:CLK 1.94636e-05
7 *1565:D *151:10 1.54049e-05
8 *1565:D *532:100 4.82919e-05
*RES
1 *1355:Y *1565:D 9.67875 
*END

*D_NET *85 0.000608412
*CONN
*I *1566:D I *D sky130_fd_sc_hd__dfxtp_2
*I *1357:Y O *D sky130_fd_sc_hd__a21oi_2
*CAP
1 *1566:D 0.000109206
2 *1357:Y 0.000109206
3 *1566:D *1359:A2 2.97674e-05
4 *1566:D *425:96 6.01366e-05
5 *1566:D *454:14 0.000137777
6 *1566:D *559:31 0.000162318
*RES
1 *1357:Y *1566:D 10.6088 
*END

*D_NET *86 0.00079618
*CONN
*I *1567:D I *D sky130_fd_sc_hd__dfxtp_2
*I *1359:X O *D sky130_fd_sc_hd__a21o_2
*CAP
1 *1567:D 0.000185911
2 *1359:X 0.000185911
3 *1567:D *1213:D 1.26548e-05
4 *1567:D *1434:A 2.04411e-05
5 *1567:D *1436:B1 1.34361e-05
6 *1567:D *1493:A 0.000160874
7 *1567:D *1660:A 3.51254e-06
8 *1567:D *307:22 0.000139412
9 *1567:D *455:14 7.4027e-05
*RES
1 *1359:X *1567:D 11.1337 
*END

*D_NET *87 0.000348254
*CONN
*I *1568:D I *D sky130_fd_sc_hd__dfxtp_2
*I *1361:X O *D sky130_fd_sc_hd__a21o_2
*CAP
1 *1568:D 6.89538e-05
2 *1361:X 6.89538e-05
3 *1568:D *1213:D 0.000116158
4 *1568:D *1436:B1 4.40812e-05
5 *1568:D *532:88 5.01066e-05
*RES
1 *1361:X *1568:D 9.06375 
*END

*D_NET *88 0.000395723
*CONN
*I *1569:D I *D sky130_fd_sc_hd__dfxtp_2
*I *1363:Y O *D sky130_fd_sc_hd__a21oi_2
*CAP
1 *1569:D 8.56666e-05
2 *1363:Y 8.56666e-05
3 *1569:D *287:21 4.75576e-05
4 *1569:D *425:64 8.84163e-05
5 *1569:D *452:22 0
6 *1569:D *457:27 8.84163e-05
*RES
1 *1363:Y *1569:D 9.15375 
*END

*D_NET *89 0.000519397
*CONN
*I *1570:D I *D sky130_fd_sc_hd__dfxtp_2
*I *1364:X O *D sky130_fd_sc_hd__a21o_2
*CAP
1 *1570:D 6.52076e-05
2 *1364:X 6.52076e-05
3 *1570:D *1364:A1 9.14049e-05
4 *1570:D *461:28 1.17666e-05
5 *1570:D *532:40 0.000112446
6 *1570:D *533:46 8.58415e-05
7 *1570:D *569:62 8.75227e-05
*RES
1 *1364:X *1570:D 9.40875 
*END

*D_NET *90 0.00120159
*CONN
*I *1571:D I *D sky130_fd_sc_hd__dfxtp_2
*I *1367:Y O *D sky130_fd_sc_hd__a21oi_2
*CAP
1 *1571:D 0.000155701
2 *1367:Y 0.000155701
3 *1571:D *1367:A2 8.34281e-06
4 *1571:D *1374:B1 4.82863e-05
5 *1571:D *1577:D 0.000193801
6 *1571:D *1661:A 0.000120655
7 *1571:D *98:28 6.16204e-05
8 *1571:D *300:22 0.000157325
9 *1571:D *424:20 0.000157325
10 *1571:D *425:54 8.58415e-05
11 *1571:D *585:145 5.69938e-05
*RES
1 *1367:Y *1571:D 12.4388 
*END

*D_NET *91 0.000614298
*CONN
*I *1572:D I *D sky130_fd_sc_hd__dfxtp_2
*I *1369:X O *D sky130_fd_sc_hd__a21o_2
*CAP
1 *1572:D 0.000126838
2 *1369:X 0.000126838
3 *1572:D *1213:D 0.000166271
4 *1572:D *1369:A2 0.000150771
5 *1572:D *1369:B1 4.35797e-05
*RES
1 *1369:X *1572:D 6.8 
*END

*D_NET *92 0.000814415
*CONN
*I *1583:D I *D sky130_fd_sc_hd__dfxtp_2
*I *1371:X O *D sky130_fd_sc_hd__and2_2
*CAP
1 *1583:D 0.000252073
2 *1371:X 0.000252073
3 *1583:D *1371:A 0
4 *1583:D *1432:A 0.0001667
5 *1583:D *1432:B 0
6 *1583:D *1435:B1 6.53745e-05
7 *1583:D *483:14 7.81946e-05
*RES
1 *1371:X *1583:D 12.3938 
*END

*D_NET *93 0.000481069
*CONN
*I *1573:D I *D sky130_fd_sc_hd__dfxtp_2
*I *1376:X O *D sky130_fd_sc_hd__a211o_2
*CAP
1 *1573:D 7.92862e-05
2 *1376:X 7.92862e-05
3 *1573:D *1377:A 3.99855e-05
4 *1573:D *1378:B1 0.000140912
5 *1573:D *1578:D 0.000141599
*RES
1 *1376:X *1573:D 9.555 
*END

*D_NET *94 0.000363025
*CONN
*I *1574:D I *D sky130_fd_sc_hd__dfxtp_2
*I *1379:Y O *D sky130_fd_sc_hd__a21oi_2
*CAP
1 *1574:D 6.37206e-05
2 *1379:Y 6.37206e-05
3 *1574:D *1436:A2 2.78641e-05
4 *1574:D *1574:CLK 2.76356e-05
5 *1574:D *534:33 0.000180084
*RES
1 *1379:Y *1574:D 4.91375 
*END

*D_NET *95 0.00909182
*CONN
*I *1575:D I *D sky130_fd_sc_hd__dfxtp_2
*I *1461:X O *D sky130_fd_sc_hd__o21a_2
*CAP
1 *1575:D 0.00267591
2 *1461:X 0.00267591
3 *1575:D *602:CLK 2.06578e-05
4 *1575:D *1259:A 0.000284749
5 *1575:D *1259:B 3.6964e-05
6 *1575:D *1260:A 0.000333702
7 *1575:D *1260:C 3.47668e-05
8 *1575:D *1366:A 0.000108172
9 *1575:D *1368:A 9.66147e-05
10 *1575:D *1424:A 0
11 *1575:D *1424:B 6.85082e-05
12 *1575:D *1428:B 0.000384002
13 *1575:D *1429:A 0.00130059
14 *1575:D *1434:A 0
15 *1575:D *1436:A1 0.000166946
16 *1575:D *1512:B 9.96679e-05
17 *1575:D *1622:A 0.000281707
18 *1575:D *98:28 7.23533e-05
19 *1575:D *173:10 0
20 *1575:D *347:31 0
21 *1575:D *424:49 0.000169357
22 *1575:D *433:93 0.000145464
23 *1575:D *460:30 0.000100994
24 *1532:D *1575:D 3.47837e-05
*RES
1 *1461:X *1575:D 29.7389 
*END

*D_NET *96 0.00736041
*CONN
*I *1576:D I *D sky130_fd_sc_hd__dfxtp_2
*I *1467:X O *D sky130_fd_sc_hd__o211a_2
*CAP
1 *1576:D 0.00126058
2 *1467:X 0.00126058
3 *1576:D *1376:A2 9.03376e-05
4 *1576:D *1427:A 0
5 *1576:D *1429:B 0
6 *1576:D *1430:A 0.000160635
7 *1576:D *1431:A 9.22673e-05
8 *1576:D *1436:B1 0
9 *1576:D *1453:A1_N 1.24905e-05
10 *1576:D *1453:A2_N 1.56315e-05
11 *1576:D *1461:A1 8.65905e-05
12 *1576:D *1461:A2 0.000919712
13 *1576:D *1467:A1 5.90819e-05
14 *1576:D *1467:C1 3.21081e-06
15 *1576:D *1480:A1 0.00024046
16 *1576:D *1480:B1 2.75229e-05
17 *1576:D *1493:B 0.00015829
18 *1576:D *1525:CLK 0.00083346
19 *1576:D *1577:D 3.71206e-05
20 *1576:D *1579:D 0.00100076
21 *1576:D *1580:D 0
22 *1576:D *1622:A 0.000356897
23 *1576:D *307:22 7.00889e-06
24 *1576:D *307:29 8.95932e-05
25 *1576:D *307:52 0.000205222
26 *1576:D *307:73 5.96104e-05
27 *1576:D *433:21 9.03376e-05
28 *1576:D *585:145 0.000293016
*RES
1 *1467:X *1576:D 47.0387 
*END

*D_NET *97 0.00726876
*CONN
*I *1577:D I *D sky130_fd_sc_hd__dfxtp_2
*I *1471:X O *D sky130_fd_sc_hd__o21a_2
*CAP
1 *1577:D 0.00202969
2 *1471:X 0.00202969
3 *1577:D *1374:A2 7.67606e-05
4 *1577:D *1374:B1 0.000232782
5 *1577:D *1376:A1 0.000143115
6 *1577:D *1377:A 0.000237563
7 *1577:D *1436:A1 0.000165365
8 *1577:D *1492:A 9.37731e-05
9 *1577:D *1577:CLK 0
10 *1577:D *1578:D 0.000872979
11 *1577:D *1661:A 9.74132e-05
12 *1577:D *1668:addr[5] 1.08758e-05
13 *1577:D *297:22 9.27255e-06
14 *1577:D *297:45 0.000101872
15 *1577:D *460:22 0.000105074
16 *1577:D *460:30 7.00223e-05
17 *1577:D *461:28 1.95052e-05
18 *1577:D *500:8 8.41307e-05
19 *1577:D *582:81 0
20 *1577:D *585:145 0.000657956
21 uo_out[1] *1577:D 0
22 *1571:D *1577:D 0.000193801
23 *1576:D *1577:D 3.71206e-05
*RES
1 *1471:X *1577:D 46.1538 
*END

*D_NET *98 0.0104964
*CONN
*I *1578:D I *D sky130_fd_sc_hd__dfxtp_2
*I *1476:X O *D sky130_fd_sc_hd__o311a_2
*CAP
1 *1578:D 0.000480145
2 *1476:X 0.00220056
3 *98:28 0.0026807
4 *1578:D *1378:A2 0.000337918
5 *1578:D *1378:B1 0.000149406
6 *1578:D *1379:B1 0.000134516
7 *1578:D *1429:B 0.000125139
8 *1578:D *1570:CLK 1.26548e-05
9 *1578:D *433:27 0.000125139
10 *1578:D *433:79 3.60648e-05
11 *1578:D *460:30 4.60526e-05
12 *1578:D *461:28 1.92875e-05
13 *98:28 *1346:A 8.76499e-05
14 *98:28 *1346:B 4.35348e-05
15 *98:28 *1353:B 0.000450368
16 *98:28 *1434:A 0
17 *98:28 *1436:B1 0
18 *98:28 *1480:A2 7.67415e-06
19 *98:28 *1589:D 8.87841e-05
20 *98:28 *1617:A 0.00023468
21 *98:28 *1622:A 2.93569e-05
22 *98:28 *284:6 3.96737e-05
23 *98:28 *285:10 0.000234685
24 *98:28 *307:22 0.000128931
25 *98:28 *368:10 0.000275548
26 *98:28 *424:14 0.000159607
27 *98:28 *424:20 0.000387008
28 *98:28 *424:49 0.000153482
29 *98:28 *425:42 0.000168165
30 *98:28 *425:54 0.000190584
31 *98:28 *459:10 0.000311294
32 *98:28 *585:145 9.27255e-06
33 *1571:D *98:28 6.16204e-05
34 *1573:D *1578:D 0.000141599
35 *1575:D *98:28 7.23533e-05
36 *1577:D *1578:D 0.000872979
*RES
1 *1476:X *98:28 41.785 
2 *98:28 *1578:D 17.1187 
*END

*D_NET *99 0.00643481
*CONN
*I *1579:D I *D sky130_fd_sc_hd__dfxtp_2
*I *1480:X O *D sky130_fd_sc_hd__o21a_2
*CAP
1 *1579:D 0.00158046
2 *1480:X 0.00158046
3 *1579:D *1375:C 0.000101402
4 *1579:D *1376:A2 0.000338221
5 *1579:D *1379:A2 8.23457e-05
6 *1579:D *1429:B 8.77684e-05
7 *1579:D *1435:C1 3.09164e-05
8 *1579:D *1436:A2 0.000529163
9 *1579:D *1436:C1 2.18774e-05
10 *1579:D *1461:A1 0
11 *1579:D *1492:A 6.28843e-05
12 *1579:D *1493:A 0.00028238
13 *1579:D *1493:B 2.67184e-05
14 *1579:D *1494:A 0
15 *1579:D *1495:A 0.000253443
16 *1579:D *1589:D 0.000237726
17 *1579:D *1622:A 1.07797e-05
18 *1579:D *307:35 0
19 *1579:D *433:25 8.77684e-05
20 *1579:D *461:14 4.43871e-06
21 *1579:D *534:33 9.61344e-05
22 *1579:D *582:81 0
23 *1579:D *585:145 1.91597e-05
24 *1576:D *1579:D 0.00100076
*RES
1 *1480:X *1579:D 43.7188 
*END

*D_NET *100 0.00796134
*CONN
*I *1580:D I *D sky130_fd_sc_hd__dfxtp_2
*I *1485:X O *D sky130_fd_sc_hd__o211a_2
*CAP
1 *1580:D 0.00275341
2 *1485:X 0.00275341
3 *1580:D *1353:B 4.41506e-05
4 *1580:D *1426:A 0.000164382
5 *1580:D *1429:B 4.76756e-05
6 *1580:D *1436:B1 4.12825e-05
7 *1580:D *1452:A 9.387e-06
8 *1580:D *1452:B 4.66474e-05
9 *1580:D *1454:B 0
10 *1580:D *1461:A2 0.000155491
11 *1580:D *1471:A2 3.90199e-05
12 *1580:D *1473:B1 5.26434e-05
13 *1580:D *1476:B1 0.00015997
14 *1580:D *1485:A1 7.76543e-05
15 *1580:D *1485:A2 2.83518e-05
16 *1580:D *1485:B1 3.00381e-05
17 *1580:D *1493:B 6.4422e-05
18 *1580:D *1504:B1 3.17079e-05
19 *1580:D *1512:B 0.000887226
20 *1580:D *1657:A 5.018e-05
21 *1580:D *1668:addr[5] 0
22 *1580:D *371:10 8.42083e-05
23 *1580:D *371:50 1.45508e-05
24 *1580:D *378:65 1.7635e-05
25 *1580:D *379:10 0
26 *1580:D *379:55 4.66108e-05
27 *1580:D *483:40 0.000106769
28 *1580:D *501:35 0.000117444
29 *1580:D *502:26 6.43269e-05
30 *1580:D *518:26 0
31 *1580:D *518:30 0
32 *1580:D *527:49 6.32475e-05
33 *1564:D *1580:D 9.50342e-06
34 *1576:D *1580:D 0
*RES
1 *1485:X *1580:D 30.171 
*END

*D_NET *101 0.000367583
*CONN
*I *1581:D I *D sky130_fd_sc_hd__dfxtp_2
*I *1486:X O *D sky130_fd_sc_hd__mux2_1
*CAP
1 *1581:D 0.000101089
2 *1486:X 0.000101089
3 *1581:D *1226:B 3.00381e-05
4 *1581:D *1412:A 1.52184e-05
5 *1581:D *1445:B1 9.14049e-05
6 *1581:D *570:78 1.43717e-05
7 *1581:D *579:80 0
8 *1581:D *579:84 1.43717e-05
*RES
1 *1486:X *1581:D 8.91375 
*END

*D_NET *102 0.000373097
*CONN
*I *1582:D I *D sky130_fd_sc_hd__dfxtp_2
*I *1487:X O *D sky130_fd_sc_hd__mux2_1
*CAP
1 *1582:D 0.000130911
2 *1487:X 0.000130911
3 *1582:D *1448:A 5.53249e-06
4 *1582:D *1527:CLK 0
5 *1582:D *172:22 0
6 *1582:D *433:168 5.20335e-05
7 *1582:D *462:16 0
8 *1582:D *587:76 5.37091e-05
*RES
1 *1487:X *1582:D 9.57375 
*END

*D_NET *103 0.000586679
*CONN
*I *1584:D I *D sky130_fd_sc_hd__dfxtp_2
*I *1488:X O *D sky130_fd_sc_hd__and2_2
*CAP
1 *1584:D 0.000156847
2 *1488:X 0.000156847
3 *1584:D *1464:B 0
4 *1584:D *483:14 3.39151e-05
5 *1584:D *494:8 0.000239069
*RES
1 *1488:X *1584:D 10.5337 
*END

*D_NET *104 0.00107643
*CONN
*I *1585:D I *D sky130_fd_sc_hd__dfxtp_2
*I *1489:X O *D sky130_fd_sc_hd__and2_2
*CAP
1 *1585:D 0.00032583
2 *1489:X 0.00032583
3 *1585:D *1435:B1 9.28365e-05
4 *1585:D *1454:B 0
5 *1585:D *1489:A 2.04748e-05
6 *1585:D *1655:A 0.0001249
7 *1585:D *424:169 0.000128642
8 *1585:D *495:8 5.50579e-05
9 *1585:D *527:55 2.8585e-06
*RES
1 *1489:X *1585:D 12.6187 
*END

*D_NET *105 0.0006899
*CONN
*I *1586:D I *D sky130_fd_sc_hd__dfxtp_2
*I *1490:X O *D sky130_fd_sc_hd__and2_2
*CAP
1 *1586:D 0.000187958
2 *1490:X 0.000187958
3 *1586:D *1435:B1 7.7516e-05
4 *1586:D *1504:B1 3.10366e-05
5 *1586:D *1505:A 0.000121643
6 *1586:D *1657:A 4.45596e-05
7 *1586:D *527:49 3.81845e-05
8 *1586:D *527:55 1.04285e-06
*RES
1 *1490:X *1586:D 10.695 
*END

*D_NET *106 0.000428136
*CONN
*I *1587:D I *D sky130_fd_sc_hd__dfxtp_2
*I *1491:X O *D sky130_fd_sc_hd__and2_2
*CAP
1 *1587:D 9.59139e-05
2 *1491:X 9.59139e-05
3 *1587:D *1435:B1 7.36892e-05
4 *1587:D *1441:B 3.59997e-05
5 *1587:D *1498:A 3.18219e-05
6 *1587:D *1614:A 2.11084e-05
7 *1587:D *424:130 7.36892e-05
*RES
1 *1491:X *1587:D 9.45375 
*END

*D_NET *107 0.000642563
*CONN
*I *1588:D I *D sky130_fd_sc_hd__dfxtp_2
*I *1492:X O *D sky130_fd_sc_hd__and2_2
*CAP
1 *1588:D 0.000124294
2 *1492:X 0.000124294
3 *1588:D *1435:B1 0.000100139
4 *1588:D *1435:C1 0
5 *1588:D *424:123 0.000200765
6 *1588:D *582:81 9.30717e-05
*RES
1 *1492:X *1588:D 10.1888 
*END

*D_NET *108 0.00175818
*CONN
*I *1589:D I *D sky130_fd_sc_hd__dfxtp_2
*I *1493:X O *D sky130_fd_sc_hd__and2_2
*CAP
1 *1589:D 0.000282688
2 *1493:X 0.000282688
3 *1589:D *1366:A 1.45232e-05
4 *1589:D *1379:A2 0.000110198
5 *1589:D *1430:A 0.000220318
6 *1589:D *1431:B 0.000202894
7 *1589:D *1436:C1 4.82919e-05
8 *1589:D *1437:A 0
9 *1589:D *1493:A 8.22858e-05
10 *1589:D *1525:CLK 1.22884e-05
11 *1589:D *1660:A 8.78735e-05
12 *1589:D *424:14 8.76265e-05
13 *1579:D *1589:D 0.000237726
14 *98:28 *1589:D 8.87841e-05
*RES
1 *1493:X *1589:D 15.2137 
*END

*D_NET *109 0.0019899
*CONN
*I *1590:D I *D sky130_fd_sc_hd__dfxtp_2
*I *1494:X O *D sky130_fd_sc_hd__and2_2
*CAP
1 *1590:D 0.000521529
2 *1494:X 0.000521529
3 *1590:D *1376:A2 0.000124007
4 *1590:D *1428:B 4.43871e-06
5 *1590:D *1436:B2 0.000116158
6 *1590:D *1591:CLK 9.92356e-05
7 *1590:D *1591:D 1.54049e-05
8 *1590:D *1661:A 1.54049e-05
9 *1590:D *288:38 2.98594e-05
10 *1590:D *501:35 0.00015482
11 *1590:D *528:10 0.000196405
12 *1590:D *528:42 9.56774e-05
13 *1590:D *585:145 9.5433e-05
*RES
1 *1494:X *1590:D 16.4438 
*END

*D_NET *110 0.00107201
*CONN
*I *1591:D I *D sky130_fd_sc_hd__dfxtp_2
*I *1495:X O *D sky130_fd_sc_hd__and2_2
*CAP
1 *1591:D 0.000258129
2 *1495:X 0.000258129
3 *1591:D *1376:A2 0.000127207
4 *1591:D *1436:A1 0.000214152
5 *1591:D *1494:A 9.37898e-05
6 *1591:D *1495:A 0
7 *1591:D *1591:CLK 1.43717e-05
8 *1591:D *460:132 9.08248e-05
9 *1590:D *1591:D 1.54049e-05
*RES
1 *1495:X *1591:D 13.3088 
*END

*D_NET *111 0.000369552
*CONN
*I *1592:D I *D sky130_fd_sc_hd__dfxtp_2
*I *1496:X O *D sky130_fd_sc_hd__and2_2
*CAP
1 *1592:D 0.000130117
2 *1496:X 0.000130117
3 *1592:D *1437:B 0
4 *1592:D *1496:A 0
5 *1592:D *1592:CLK 7.82691e-05
6 *1592:D *424:51 0
7 *1592:D *502:26 3.10498e-05
*RES
1 *1496:X *1592:D 9.555 
*END

*D_NET *112 0.000459242
*CONN
*I *1593:D I *D sky130_fd_sc_hd__dfxtp_2
*I *1497:X O *D sky130_fd_sc_hd__and2_2
*CAP
1 *1593:D 6.55831e-05
2 *1497:X 6.55831e-05
3 *1593:D *1497:A 6.35535e-05
4 *1593:D *1497:B 0.000159964
5 *1593:D *424:88 5.14416e-05
6 *1593:D *484:10 5.31171e-05
*RES
1 *1497:X *1593:D 9.57375 
*END

*D_NET *113 0.00195274
*CONN
*I *1594:D I *D sky130_fd_sc_hd__dfxtp_2
*I *1498:X O *D sky130_fd_sc_hd__and2_2
*CAP
1 *1594:D 0.000393911
2 *1498:X 0.000393911
3 *1594:D *1426:A 0.000184681
4 *1594:D *1426:B 5.20335e-05
5 *1594:D *1435:B2 0.000304823
6 *1594:D *1440:A 8.08439e-05
7 *1594:D *1490:A 0
8 *1594:D *1498:A 0.00012602
9 *1594:D *1505:B 6.96175e-05
10 *1594:D *1599:D 9.30717e-05
11 *1594:D *424:219 0
12 *1594:D *518:26 1.00941e-05
13 *1594:D *527:19 0.000243737
*RES
1 *1498:X *1594:D 16.9688 
*END

*D_NET *114 0.00166896
*CONN
*I *1595:D I *D sky130_fd_sc_hd__dfxtp_2
*I *1499:X O *D sky130_fd_sc_hd__and2_2
*CAP
1 *1595:D 0.000465352
2 *1499:X 0.000465352
3 *1595:D *1441:B 7.23533e-05
4 *1595:D *1498:A 0
5 *1595:D *1499:A 0.000131058
6 *1595:D *1500:A 0
7 *1595:D *1596:D 0.000138266
8 *1595:D *1652:A 0.000116158
9 *1595:D *528:93 1.94805e-05
10 *1595:D *528:95 1.73877e-05
11 *1595:D *582:81 0
12 *1647:A *1595:D 0.000243554
*RES
1 *1499:X *1595:D 17.1637 
*END

*D_NET *115 0.000652843
*CONN
*I *1596:D I *D sky130_fd_sc_hd__dfxtp_2
*I *1500:X O *D sky130_fd_sc_hd__and2_2
*CAP
1 *1596:D 0.000122563
2 *1500:X 0.000122563
3 *1596:D *1426:A 0.00020525
4 *1596:D *1500:A 6.42013e-05
5 *1596:D *582:81 0
6 *1595:D *1596:D 0.000138266
*RES
1 *1500:X *1596:D 10.6987 
*END

*D_NET *116 0.00256289
*CONN
*I *1597:D I *D sky130_fd_sc_hd__dfxtp_2
*I *1501:X O *D sky130_fd_sc_hd__and2_2
*CAP
1 *1597:D 0.000525843
2 *1501:X 0.000525843
3 *1597:D *1426:B 1.34503e-05
4 *1597:D *1438:A 0
5 *1597:D *1504:A2 0.000433003
6 *1597:D *1602:CLK 0.000480698
7 *1647:A *1597:D 0.00058405
*RES
1 *1501:X *1597:D 19.0837 
*END

*D_NET *117 0.000675812
*CONN
*I *1598:D I *D sky130_fd_sc_hd__dfxtp_2
*I *1504:X O *D sky130_fd_sc_hd__o21a_2
*CAP
1 *1598:D 9.21944e-05
2 *1504:X 9.21944e-05
3 *1598:D *1504:B1 9.03138e-05
4 *1598:D *1648:A 0
5 *1598:D *1653:A 0.000199714
6 *1598:D *518:26 0.000201395
*RES
1 *1504:X *1598:D 10.1888 
*END

*D_NET *118 0.000908733
*CONN
*I *1599:D I *D sky130_fd_sc_hd__dfxtp_2
*I *1505:X O *D sky130_fd_sc_hd__and2_2
*CAP
1 *1599:D 0.00013467
2 *1505:X 0.00013467
3 *1599:D *1426:A 9.30717e-05
4 *1599:D *1440:C 7.17982e-05
5 *1599:D *1650:A 0.00022707
6 *1599:D *1657:A 4.77757e-05
7 *1599:D *424:145 0.000106605
8 *1594:D *1599:D 9.30717e-05
*RES
1 *1505:X *1599:D 11.0737 
*END

*D_NET *119 0.00105047
*CONN
*I *1600:D I *D sky130_fd_sc_hd__dfxtp_2
*I *1508:X O *D sky130_fd_sc_hd__o21a_2
*CAP
1 *1600:D 0.0001167
2 *1508:X 0.0001167
3 *1600:D *1426:A 0.000552363
4 *1600:D *1435:A1 0.000168092
5 *1600:D *483:32 9.66106e-05
*RES
1 *1508:X *1600:D 8.51375 
*END

*D_NET *120 0.000715979
*CONN
*I *1601:D I *D sky130_fd_sc_hd__dfxtp_2
*I *1511:X O *D sky130_fd_sc_hd__o21a_2
*CAP
1 *1601:D 0.000126401
2 *1511:X 0.000126401
3 *1601:D *1439:B 8.03844e-05
4 *1601:D *1439:C 0
5 *1601:D *1504:A1 0.000139238
6 *1601:D *489:23 0.000243554
*RES
1 *1511:X *1601:D 11.0437 
*END

*D_NET *121 0.00104099
*CONN
*I *1602:D I *D sky130_fd_sc_hd__dfxtp_2
*I *1512:X O *D sky130_fd_sc_hd__and2_2
*CAP
1 *1602:D 0.000332497
2 *1512:X 0.000332497
3 *1602:D *1426:B 0.000375995
*RES
1 *1512:X *1602:D 14.1488 
*END

*D_NET *122 0.00337821
*CONN
*I *1520:A1 I *D sky130_fd_sc_hd__o221a_2
*I *1518:A1 I *D sky130_fd_sc_hd__a221o_2
*I *1298:B I *D sky130_fd_sc_hd__nor2_2
*I *1137:Y O *D sky130_fd_sc_hd__inv_2
*CAP
1 *1520:A1 0
2 *1518:A1 0.000213663
3 *1298:B 5.13303e-05
4 *1137:Y 0.000123789
5 *122:25 0.000424849
6 *122:10 0.000386306
7 *1298:B *1167:B 7.25761e-05
8 *1298:B *1298:A 0.000136459
9 *1518:A1 *1518:A2 8.27712e-05
10 *1518:A1 *1519:A 0.000134623
11 *1518:A1 *1520:B1 7.92638e-05
12 *1518:A1 *1524:A_N 3.83194e-05
13 *1518:A1 *1524:B 2.30292e-05
14 *1518:A1 *1669:clk 4.82919e-05
15 *1518:A1 *473:42 4.82603e-05
16 *1518:A1 *536:48 0
17 *1518:A1 *581:108 9.50342e-06
18 *122:10 *1167:B 4.43871e-06
19 *122:10 *1298:A 6.85516e-05
20 *122:10 *1527:CLK 0.000461941
21 *122:10 *1557:CLK 2.75538e-05
22 *122:10 *587:38 0.000496011
23 *122:25 *1520:B2 1.23392e-05
24 *122:25 *1524:B 4.99619e-05
25 *122:25 *1669:clk 6.85667e-05
26 *122:25 *587:38 0.000116869
27 *1527:GATE *122:25 0.000198939
*RES
1 *1137:Y *122:10 9.06 
2 *122:10 *1298:B 5.235 
3 *122:10 *122:25 6.95 
4 *122:25 *1518:A1 10.385 
5 *122:25 *1520:A1 1.6 
*END

*D_NET *123 0.00287335
*CONN
*I *1522:A1 I *D sky130_fd_sc_hd__a221oi_2
*I *1516:A1 I *D sky130_fd_sc_hd__o22a_2
*I *1138:Y O *D sky130_fd_sc_hd__inv_2
*CAP
1 *1522:A1 0.000205021
2 *1516:A1 0.000128051
3 *1138:Y 0.000386674
4 *123:14 0.000719746
5 *1516:A1 *1340:A 3.45438e-05
6 *1516:A1 *1516:A2 0.000160635
7 *1516:A1 *1522:B2 8.87364e-05
8 *1522:A1 *1340:A 6.52265e-05
9 *1522:A1 *1517:B2 2.05056e-05
10 *1522:A1 *1522:B2 0.000119584
11 *1522:A1 *426:109 0.000179569
12 *1522:A1 *426:122 0.000132096
13 *123:14 *1334:A3 0
14 *123:14 *1335:A 0.000231564
15 *123:14 *1340:A 2.91343e-05
16 *123:14 *1514:A 0
17 *123:14 *1514:B 0
18 *123:14 *1522:B2 4.9968e-05
19 *123:14 *251:43 4.18603e-06
20 *123:14 *251:52 6.65717e-05
21 *123:14 *280:14 0.00015609
22 *123:14 *426:122 0
23 *123:14 *481:8 9.54469e-05
24 *123:14 *582:43 0
*RES
1 *1138:Y *123:14 14.7575 
2 *123:14 *1516:A1 4.6525 
3 *123:14 *1522:A1 10.9325 
*END

*D_NET *124 0.00215594
*CONN
*I *1522:B2 I *D sky130_fd_sc_hd__a221oi_2
*I *1516:B2 I *D sky130_fd_sc_hd__o22a_2
*I *1139:Y O *D sky130_fd_sc_hd__inv_2
*CAP
1 *1522:B2 0.000306229
2 *1516:B2 3.66245e-05
3 *1139:Y 0.000160407
4 *124:10 0.00050326
5 *1516:B2 *1516:B1 5.90151e-05
6 *1516:B2 *1523:B 8.6076e-05
7 *1522:B2 *1340:A 0.000122325
8 *1522:B2 *1516:A2 7.68414e-06
9 *1522:B2 *1523:B 0.000383657
10 *1522:B2 *1642:A 7.81417e-05
11 *1522:B2 *125:10 1.07797e-05
12 *1522:B2 *251:43 0
13 *1522:B2 *280:14 8.53113e-06
14 *1522:B2 *426:122 0
15 *1522:B2 *588:36 2.8531e-05
16 *124:10 *1514:B 0.000106393
17 *1516:A1 *1522:B2 8.87364e-05
18 *1522:A1 *1522:B2 0.000119584
19 *123:14 *1522:B2 4.9968e-05
*RES
1 *1139:Y *124:10 8.765 
2 *124:10 *1516:B2 2.755 
3 *124:10 *1522:B2 13.85 
*END

*D_NET *125 0.00244371
*CONN
*I *1515:B2 I *D sky130_fd_sc_hd__a221o_2
*I *1517:B2 I *D sky130_fd_sc_hd__o22a_2
*I *1340:A I *D sky130_fd_sc_hd__xnor2_2
*I *1140:Y O *D sky130_fd_sc_hd__inv_2
*CAP
1 *1515:B2 0.000157421
2 *1517:B2 0.000315073
3 *1340:A 4.30152e-05
4 *1140:Y 0
5 *125:10 0.00040725
6 *125:4 0.000206582
7 *1340:A *1523:B 1.46828e-05
8 *1340:A *280:14 4.82863e-05
9 *1515:B2 *1140:A 3.26889e-05
10 *1515:B2 *1515:C1 4.24818e-05
11 *1515:B2 *1523:A_N 0.000120864
12 *1517:B2 *1515:A2 8.73389e-06
13 *1517:B2 *1523:B 0.000121287
14 *1517:B2 *1523:C 0.000237243
15 *1517:B2 *1523:D 0.000102137
16 *1517:B2 *280:14 8.49205e-05
17 *1517:B2 *589:32 2.02929e-05
18 *1517:B2 *589:46 4.66108e-05
19 *125:10 *280:14 9.14049e-05
20 *125:10 *426:122 6.02202e-05
21 *1516:A1 *1340:A 3.45438e-05
22 *1522:A1 *1340:A 6.52265e-05
23 *1522:A1 *1517:B2 2.05056e-05
24 *1522:B2 *1340:A 0.000122325
25 *1522:B2 *125:10 1.07797e-05
26 *123:14 *1340:A 2.91343e-05
*RES
1 *1140:Y *125:4 1.6 
2 *125:4 *125:10 5.38 
3 *125:10 *1340:A 3.43 
4 *125:10 *1517:B2 8.05 
5 *125:4 *1515:B2 4.60375 
*END

*D_NET *126 0.000773137
*CONN
*I *1215:C1 I *D sky130_fd_sc_hd__a211o_2
*I *1142:Y O *D sky130_fd_sc_hd__inv_2
*CAP
1 *1215:C1 0.00019052
2 *1142:Y 0.00019052
3 *1215:C1 *1142:A 5.83121e-06
4 *1215:C1 *1163:A 4.18603e-06
5 *1215:C1 *1216:C1 5.4256e-05
6 *1215:C1 *1669:clk 1.02639e-05
7 *1215:C1 *426:70 0
8 *1215:C1 *466:20 0.000134516
9 *1215:C1 *466:54 0.000183043
10 *1215:C1 *582:37 0
*RES
1 *1142:Y *1215:C1 11.325 
*END

*D_NET *127 0.00191944
*CONN
*I *1216:A1 I *D sky130_fd_sc_hd__o221a_2
*I *1215:A1 I *D sky130_fd_sc_hd__a211o_2
*I *1143:Y O *D sky130_fd_sc_hd__inv_2
*CAP
1 *1216:A1 0.000214588
2 *1215:A1 2.08101e-05
3 *1143:Y 6.28016e-05
4 *127:6 0.0002982
5 *1215:A1 *1163:B 0
6 *1216:A1 *1163:B 0.000124622
7 *1216:A1 *1215:B1 4.66108e-05
8 *1216:A1 *1217:A2 0.000147433
9 *1216:A1 *1217:C1 9.30787e-05
10 *1216:A1 *1519:B 0
11 *1216:A1 *1547:RESET_B 2.75229e-05
12 *1216:A1 *426:64 8.8266e-05
13 *1216:A1 *426:109 6.14602e-05
14 *1216:A1 *581:64 4.82919e-05
15 *1216:A1 *582:14 0.000272085
16 *127:6 *1143:A 8.23457e-05
17 *127:6 *1163:B 5.51767e-05
18 *127:6 *1215:A2 4.66108e-05
19 *127:6 *582:14 0.000229541
*RES
1 *1143:Y *127:6 3.775 
2 *127:6 *1215:A1 1.96 
3 *127:6 *1216:A1 12.305 
*END

*D_NET *128 0.00199595
*CONN
*I *1216:B2 I *D sky130_fd_sc_hd__o221a_2
*I *1217:A1 I *D sky130_fd_sc_hd__a221o_2
*I *1144:Y O *D sky130_fd_sc_hd__inv_2
*CAP
1 *1216:B2 0.00019578
2 *1217:A1 0
3 *1144:Y 0.000306493
4 *128:14 0.000502273
5 *1216:B2 *1216:B1 3.2472e-05
6 *1216:B2 *1217:A2 7.10077e-05
7 *1216:B2 *1217:C1 4.82919e-05
8 *1216:B2 *1519:B 2.92496e-05
9 *1216:B2 *1524:B 1.0183e-05
10 *1216:B2 *581:55 2.57174e-05
11 *1216:B2 *581:64 0.000234674
12 *1216:B2 *583:27 0.000124448
13 *1216:B2 *583:39 4.66108e-05
14 *128:14 *1217:A2 8.7152e-06
15 *128:14 *1549:RESET_B 0.000235654
16 *128:14 *468:6 3.48289e-05
17 *128:14 *577:61 2.14615e-05
18 *128:14 *583:18 3.82072e-05
19 *128:14 *583:27 2.98807e-05
20 *1550:D *128:14 0
*RES
1 *1144:Y *128:14 8.4 
2 *128:14 *1217:A1 3.6 
3 *128:14 *1216:B2 8.37 
*END

*D_NET *129 0.00327816
*CONN
*I *1218:A1 I *D sky130_fd_sc_hd__o221a_2
*I *1217:B2 I *D sky130_fd_sc_hd__a221o_2
*I *1164:A I *D sky130_fd_sc_hd__xnor2_2
*I *1145:Y O *D sky130_fd_sc_hd__inv_2
*CAP
1 *1218:A1 0.000196379
2 *1217:B2 0.000462813
3 *1164:A 0.000136572
4 *1145:Y 0.000178592
5 *129:21 0.000867267
6 *129:6 0.000523239
7 *1164:A *1672:C 6.8155e-05
8 *1217:B2 *1163:B 0
9 *1217:B2 *1217:A2 8.26048e-06
10 *1217:B2 *1550:RESET_B 4.82919e-05
11 *1217:B2 *426:58 8.65348e-05
12 *1217:B2 *426:64 0.000125646
13 *1218:A1 *1549:RESET_B 9.34171e-06
14 *1218:A1 *1623:A 0
15 *1218:A1 *536:50 0.000112839
16 *129:6 *1672:C 0.00018982
17 *129:21 *1549:RESET_B 4.87819e-05
18 *129:21 *1623:A 0
19 *129:21 *1672:D 7.96104e-06
20 *129:21 *584:44 6.15576e-06
21 *1550:D *1164:A 0.000201508
22 *1550:D *129:21 0
*RES
1 *1145:Y *129:6 4.81 
2 *129:6 *1164:A 4.39 
3 *129:6 *129:21 5.27 
4 *129:21 *1217:B2 9.84 
5 *129:21 *1218:A1 6.51 
*END

*D_NET *130 0.00283187
*CONN
*I *1220:A1 I *D sky130_fd_sc_hd__a221o_2
*I *1218:B2 I *D sky130_fd_sc_hd__o221a_2
*I *1146:Y O *D sky130_fd_sc_hd__inv_2
*CAP
1 *1220:A1 0
2 *1218:B2 0.000317533
3 *1146:Y 0.000421357
4 *130:14 0.00073889
5 *1218:B2 *1218:A2 6.98797e-05
6 *1218:B2 *1220:B2 2.48591e-05
7 *1218:B2 *1220:C1 0.000204018
8 *1218:B2 *1547:RESET_B 4.66108e-05
9 *1218:B2 *246:10 2.76356e-05
10 *1218:B2 *583:39 7.67415e-06
11 *1218:B2 *583:76 0.000319649
12 *130:14 *1146:A 8.53113e-06
13 *130:14 *1166:B1 7.15972e-05
14 *130:14 *1168:B 8.8266e-05
15 *130:14 *1220:A2 1.2818e-05
16 *130:14 *1646:A 0.000218042
17 *130:14 *470:10 6.83447e-05
18 *130:14 *537:160 0
19 *130:14 *538:10 1.23268e-05
20 *130:14 *580:36 0
21 *130:14 *583:76 3.16608e-05
22 *130:14 *585:43 5.04853e-05
23 *130:14 *585:47 6.51029e-05
24 *1527:GATE *1218:B2 3.64998e-06
25 *1551:D *130:14 2.29417e-05
*RES
1 *1146:Y *130:14 13.505 
2 *130:14 *1218:B2 9.61 
3 *130:14 *1220:A1 1.6 
*END

*D_NET *131 0.00271621
*CONN
*I *1221:A1 I *D sky130_fd_sc_hd__o221a_2
*I *1220:B2 I *D sky130_fd_sc_hd__a221o_2
*I *1147:Y O *D sky130_fd_sc_hd__inv_2
*CAP
1 *1221:A1 4.41129e-05
2 *1220:B2 0.000206104
3 *1147:Y 5.6141e-05
4 *131:6 0.000306358
5 *1220:B2 *1167:A 0.00015169
6 *1220:B2 *1169:B 2.59926e-05
7 *1220:B2 *1220:B1 7.73646e-05
8 *1220:B2 *1221:A2 0.00018955
9 *1220:B2 *1646:A 4.21973e-05
10 *1220:B2 *246:10 1.33285e-05
11 *1220:B2 *577:61 0.000522449
12 *1220:B2 *585:43 0.000196579
13 *1221:A1 *1169:B 4.99619e-05
14 *131:6 *1169:B 2.7441e-05
15 *131:6 *1222:B1 0.000315527
16 *131:6 *577:61 0.00043044
17 *1218:B2 *1220:B2 2.48591e-05
18 *1551:D *1220:B2 3.61103e-05
*RES
1 *1147:Y *131:6 5.5 
2 *131:6 *1220:B2 12.665 
3 *131:6 *1221:A1 2.665 
*END

*D_NET *132 0.0012051
*CONN
*I *1518:B1 I *D sky130_fd_sc_hd__a221o_2
*I *1520:B1 I *D sky130_fd_sc_hd__o221a_2
*I *1148:Y O *D sky130_fd_sc_hd__inv_2
*CAP
1 *1518:B1 0
2 *1520:B1 0.000150228
3 *1148:Y 7.14563e-05
4 *132:6 0.000221684
5 *1520:B1 *1520:B2 5.60225e-05
6 *1520:B1 *1524:A_N 0.000179453
7 *1520:B1 *1524:C 0.000152595
8 *1520:B1 *1669:clk 4.62224e-05
9 *1520:B1 *473:42 9.27255e-06
10 *132:6 *1518:B2 2.49708e-05
11 *132:6 *473:42 0.000193806
12 *132:6 *587:38 2.01259e-05
13 *1518:A1 *1520:B1 7.92638e-05
*RES
1 *1148:Y *132:6 3.43 
2 *132:6 *1520:B1 9.60125 
3 *132:6 *1518:B1 1.6 
*END

*D_NET *133 0.00717089
*CONN
*I *1407:A I *D sky130_fd_sc_hd__nor2_2
*I *1417:A1 I *D sky130_fd_sc_hd__o22ai_2
*I *1517:A2 I *D sky130_fd_sc_hd__o22a_2
*I *1515:A2 I *D sky130_fd_sc_hd__a221o_2
*I *1149:Y O *D sky130_fd_sc_hd__inv_2
*CAP
1 *1407:A 0.000293625
2 *1417:A1 3.37585e-05
3 *1517:A2 0
4 *1515:A2 0.000312908
5 *1149:Y 0
6 *133:48 0.00115819
7 *133:18 0.000983591
8 *133:4 0.00150149
9 *1407:A *1210:A1 9.58764e-05
10 *1407:A *334:8 0
11 *1407:A *462:16 5.4003e-05
12 *1407:A *538:92 0.000198196
13 *1515:A2 *1515:A1 0.000182351
14 *1515:A2 *1515:C1 6.9114e-05
15 *1515:A2 *1517:A1 5.22577e-05
16 *1515:A2 *1518:C1 0
17 *1515:A2 *1519:A 8.68085e-05
18 *1515:A2 *1524:C 8.53113e-06
19 *1515:A2 *260:6 5.83121e-06
20 *1515:A2 *478:19 7.21296e-06
21 *1515:A2 *589:32 1.08758e-05
22 *1515:A2 *589:46 1.7635e-05
23 *133:18 *1305:A 0.000281798
24 *133:18 *1314:A2 7.96104e-06
25 *133:18 *1519:A 9.82856e-06
26 *133:18 *1621:A 1.88656e-05
27 *133:18 *538:66 7.67462e-05
28 *133:18 *570:64 0
29 *133:18 *589:46 0.000668735
30 *133:48 *1210:A1 0.000105769
31 *133:48 *1210:B1 0.000313828
32 *133:48 *1288:B1 2.11084e-05
33 *133:48 *345:12 7.48905e-05
34 *133:48 *462:16 0.000204456
35 *133:48 *585:85 0.000100933
36 *133:48 *587:119 0.000197724
37 *1517:B2 *1515:A2 8.73389e-06
38 *1545:D *1407:A 7.26475e-06
*RES
1 *1149:Y *133:4 1.6 
2 *133:4 *133:18 7.36753 
3 *133:18 *1515:A2 11.0525 
4 *133:18 *1517:A2 1.6 
5 *133:4 *133:48 16.355 
6 *133:48 *1417:A1 4.05 
7 *133:48 *1407:A 10.08 
*END

*D_NET *134 0.0219975
*CONN
*I *1331:A I *D sky130_fd_sc_hd__nor3_2
*I *1376:A1 I *D sky130_fd_sc_hd__a211o_2
*I *1379:A1 I *D sky130_fd_sc_hd__a21oi_2
*I *1315:B1 I *D sky130_fd_sc_hd__a31o_2
*I *1321:A I *D sky130_fd_sc_hd__nor3_2
*I *1342:B1 I *D sky130_fd_sc_hd__a31o_2
*I *1297:B I *D sky130_fd_sc_hd__nor2_2
*I *1333:A I *D sky130_fd_sc_hd__nor2_2
*I *1150:Y O *D sky130_fd_sc_hd__inv_2
*CAP
1 *1331:A 0
2 *1376:A1 0.000218644
3 *1379:A1 1.28682e-05
4 *1315:B1 0.000356535
5 *1321:A 2.3593e-05
6 *1342:B1 3.76658e-05
7 *1297:B 0.000841919
8 *1333:A 0.000194214
9 *1150:Y 0
10 *134:93 0.00396193
11 *134:80 0.00453877
12 *134:65 0.0018383
13 *134:33 0.00150923
14 *134:23 0.00206979
15 *134:19 0.000450645
16 *134:4 0.000567617
17 *1297:B *1157:B 0.000271923
18 *1297:B *1297:A 0
19 *1297:B *1338:A 2.84864e-05
20 *1297:B *1343:B 0
21 *1297:B *1547:CLK 2.95027e-05
22 *1297:B *1635:A 0.00028175
23 *1297:B *1669:clk 0.000155056
24 *1297:B *276:12 5.33218e-05
25 *1297:B *426:136 0.000108791
26 *1297:B *426:142 0
27 *1315:B1 *1287:B 7.79678e-05
28 *1315:B1 *1287:C 7.4027e-05
29 *1315:B1 *1310:B 0
30 *1315:B1 *1315:A2 1.23192e-05
31 *1315:B1 *1315:A3 0
32 *1315:B1 *1621:A 0
33 *1315:B1 *259:8 0
34 *1315:B1 *442:12 0
35 *1315:B1 *444:31 0.000150393
36 *1315:B1 *540:77 0.000140981
37 *1321:A *256:12 4.66108e-05
38 *1321:A *265:23 1.7635e-05
39 *1321:A *586:50 2.75229e-05
40 *1333:A *1334:B1 8.59965e-05
41 *1342:B1 *1338:A 4.66108e-05
42 *1342:B1 *276:21 0.000118081
43 *1342:B1 *279:8 3.93101e-05
44 *1376:A1 *1377:A 0.000143115
45 *1376:A1 *1436:B2 0.000103968
46 *1376:A1 *297:45 4.9669e-05
47 *1379:A1 *1377:B 1.92979e-05
48 *134:19 *1332:A1 0.000181295
49 *134:19 *1334:B1 0.00015784
50 *134:23 *1332:A1 0.000116165
51 *134:23 *1334:A3 1.37135e-05
52 *134:23 *270:20 0
53 *134:33 *1334:A2 8.41703e-06
54 *134:33 *1337:A2 0
55 *134:33 *1338:A 0.00019855
56 *134:33 *274:10 1.98177e-05
57 *134:65 *533:150 0
58 *134:80 *1310:B 0
59 *134:80 *533:150 0
60 *134:93 *1202:A 0
61 *134:93 *1429:A 0
62 *134:93 *1436:B2 0.000392146
63 *134:93 *1624:A 0.000154779
64 *134:93 *172:22 0
65 *134:93 *297:45 3.78122e-05
66 *134:93 *540:14 0.00107988
67 *134:93 *540:18 0.000438511
68 *1542:D *1315:B1 2.97122e-05
69 *1547:D *1297:B 2.68526e-05
70 *1554:D *1297:B 1.14169e-05
71 *1558:D *1321:A 1.7635e-05
72 *1560:D *134:19 0.000212505
73 *1560:D *134:23 5.33085e-05
74 *1562:D *134:33 0
75 *1577:D *1376:A1 0.000143115
*RES
1 *1150:Y *134:4 1.6 
2 *134:4 *1333:A 4.045 
3 *134:4 *134:19 8.54 
4 *134:19 *134:23 2.2625 
5 *134:23 *134:33 5.6749 
6 *134:33 *1297:B 19.59 
7 *134:33 *1342:B1 4.74 
8 *134:23 *134:65 2.25213 
9 *134:65 *1321:A 4.7825 
10 *134:65 *134:80 0.853733 
11 *134:80 *1315:B1 12.2375 
12 *134:80 *134:93 7.32133 
13 *134:93 *1379:A1 4.3325 
14 *134:93 *1376:A1 6.30837 
15 *134:19 *1331:A 3.6 
*END

*D_NET *135 0.00192378
*CONN
*I *1455:A1 I *D sky130_fd_sc_hd__o31a_2
*I *1151:Y O *D sky130_fd_sc_hd__inv_2
*CAP
1 *1455:A1 0.000279271
2 *1151:Y 0.000279271
3 *1455:A1 *1151:A 5.28395e-05
4 *1455:A1 *1435:B2 0
5 *1455:A1 *1441:B 8.0005e-05
6 *1455:A1 *1455:A2 9.50342e-06
7 *1455:A1 *1471:A1 8.53113e-06
8 *1455:A1 *1471:A2 0
9 *1455:A1 *1473:C1 2.10152e-05
10 *1455:A1 *1614:A 0.000500538
11 *1455:A1 *1668:addr[5] 0.000499563
12 *1455:A1 *368:40 2.20014e-05
13 *1455:A1 *378:57 1.23047e-05
14 *1455:A1 *381:22 0.000158938
*RES
1 *1151:Y *1455:A1 20.11 
*END

*D_NET *136 0.000723949
*CONN
*I *1481:A1 I *D sky130_fd_sc_hd__a21o_2
*I *1152:Y O *D sky130_fd_sc_hd__inv_2
*CAP
1 *1481:A1 0.000245044
2 *1152:Y 0.000245044
3 *1481:A1 *1152:A 2.30292e-05
4 *1481:A1 *1435:B1 5.062e-06
5 *1481:A1 *1452:A 2.19562e-06
6 *1481:A1 *1452:B 1.03323e-05
7 *1481:A1 *1481:A2 3.00381e-05
8 *1481:A1 *1654:A 0.000163204
*RES
1 *1152:Y *1481:A1 6.41 
*END

*D_NET *137 0.00131582
*CONN
*I *1423:A1 I *D sky130_fd_sc_hd__o211a_2
*I *1153:Y O *D sky130_fd_sc_hd__inv_2
*CAP
1 *1423:A1 0.000390904
2 *1153:Y 0.000390904
3 *1423:A1 *1153:A 0.000310776
4 *1423:A1 *1213:C 0.0001249
5 *1423:A1 *1370:B1 8.65905e-05
6 *1423:A1 *300:22 1.17409e-05
*RES
1 *1153:Y *1423:A1 11.2325 
*END

*D_NET *138 0.00291207
*CONN
*I *1156:A I *D sky130_fd_sc_hd__nand2_2
*I *1176:A1 I *D sky130_fd_sc_hd__a21o_2
*I *1175:A I *D sky130_fd_sc_hd__xor2_2
*I *1212:A I *D sky130_fd_sc_hd__and3_2
*I *1154:Y O *D sky130_fd_sc_hd__nand3b_2
*CAP
1 *1156:A 0.000197366
2 *1176:A1 0.0001389
3 *1175:A 5.99662e-05
4 *1212:A 0
5 *1154:Y 0.000197366
6 *138:12 0.000220645
7 *138:6 0.00029958
8 *1156:A *1156:B 0.00023468
9 *1156:A *1456:C_N 2.75229e-05
10 *1156:A *1460:A1 0.000123225
11 *1156:A *179:42 9.80032e-06
12 *1175:A *1212:C 0.000241483
13 *1175:A *1668:addr[8] 0.000318091
14 *1175:A *1668:addr[10] 3.90495e-05
15 *1176:A1 *1174:A_N 4.66742e-05
16 *1176:A1 *149:10 0.000144571
17 *1176:A1 *451:12 0.000115253
18 *138:12 *1155:A1 1.72133e-05
19 *138:12 *1155:B1_N 8.97536e-05
20 *138:12 *1156:B 0
21 *138:12 *1668:addr[8] 7.65972e-05
22 *138:12 *1668:addr[10] 0.000203178
23 *138:12 *149:10 0.000111158
*RES
1 *1154:Y *138:6 3.6 
2 *138:6 *138:12 5.975 
3 *138:12 *1212:A 1.6 
4 *138:12 *1175:A 4.825 
5 *138:6 *1176:A1 6.285 
6 *1154:Y *1156:A 7.115 
*END

*D_NET *139 0.00111067
*CONN
*I *1212:B I *D sky130_fd_sc_hd__and3_2
*I *1156:B I *D sky130_fd_sc_hd__nand2_2
*I *1155:X O *D sky130_fd_sc_hd__a21bo_2
*CAP
1 *1212:B 0
2 *1156:B 0.000164677
3 *1155:X 0.000102735
4 *139:6 0.000267411
5 *1156:B *1456:B 8.50672e-05
6 *1156:B *1456:C_N 1.39525e-05
7 *1156:B *179:42 7.72788e-05
8 *139:6 *432:30 0.000164874
9 *1156:A *1156:B 0.00023468
10 *138:12 *1156:B 0
*RES
1 *1155:X *139:6 3.085 
2 *139:6 *1156:B 9.41 
3 *139:6 *1212:B 1.6 
*END

*D_NET *140 0.00347896
*CONN
*I *1161:B I *D sky130_fd_sc_hd__and2_2
*I *1162:B I *D sky130_fd_sc_hd__nor2_2
*I *1160:A I *D sky130_fd_sc_hd__nor2_2
*I *1158:X O *D sky130_fd_sc_hd__and3_2
*CAP
1 *1161:B 0.000348312
2 *1162:B 0.00037097
3 *1160:A 0.000106679
4 *1158:X 0.00070161
5 *140:12 0.000830947
6 *1160:A *1159:A1 0
7 *1160:A *1160:B 3.85202e-05
8 *1161:B *1159:B1 0.000137192
9 *1161:B *1161:A 4.99619e-05
10 *1161:B *1514:B 9.29751e-06
11 *1161:B *1669:inc 0.000158741
12 *1161:B *1672:A 4.66108e-05
13 *1161:B *1672:B 0.000114943
14 *1161:B *1672:C 1.68016e-05
15 *1161:B *1672:D 1.06624e-05
16 *1161:B *465:16 0.00011352
17 *1161:B *577:61 2.10214e-05
18 *1161:B *588:18 2.65814e-06
19 *1162:B *1669:clk 0
20 *1162:B *1671:A 0
21 *1162:B *570:34 0
22 *1162:B *582:14 0
23 *1162:B *584:24 0
24 *140:12 *1159:A1 0.00017931
25 *140:12 *1159:B1 0.00013749
26 *140:12 *1160:B 7.70147e-05
27 *1548:D *1160:A 6.69608e-06
*RES
1 *1158:X *140:12 7.015 
2 *140:12 *1160:A 3.37 
3 *140:12 *1162:B 10.55 
4 *1158:X *1161:B 14.13 
*END

*D_NET *141 0.00094934
*CONN
*I *1644:A I *D sky130_fd_sc_hd__dlygate4sd3_1
*I *1159:Y O *D sky130_fd_sc_hd__a21oi_2
*CAP
1 *1644:A 0.000199721
2 *1159:Y 0.000199721
3 *1644:A *1159:A2 3.60024e-06
4 *1644:A *1160:B 0
5 *1644:A *1162:A 0.000119242
6 *1644:A *1548:CLK 0.000150366
7 *1644:A *1669:clk 0.00027669
*RES
1 *1159:Y *1644:A 11.76 
*END

*D_NET *142 0.00494895
*CONN
*I *1163:A I *D sky130_fd_sc_hd__nor2_2
*I *1164:B I *D sky130_fd_sc_hd__xnor2_2
*I *1165:C I *D sky130_fd_sc_hd__and3_2
*I *1166:A2 I *D sky130_fd_sc_hd__a21oi_2
*I *1161:X O *D sky130_fd_sc_hd__and2_2
*CAP
1 *1163:A 0.000275687
2 *1164:B 0
3 *1165:C 0.00059837
4 *1166:A2 0.000421484
5 *1161:X 0.000367044
6 *142:23 0.000628576
7 *142:6 0.000543048
8 *1163:A *1161:A 0.000113379
9 *1163:A *1672:C 0.000163293
10 *1163:A *426:70 6.02202e-05
11 *1163:A *466:20 0
12 *1163:A *577:61 0
13 *1165:C *1145:A 2.30292e-05
14 *1165:C *1165:A 8.8266e-05
15 *1165:C *1672:C 0.000662398
16 *1166:A2 *1144:A 4.60584e-05
17 *1166:A2 *1549:RESET_B 7.67345e-05
18 *1166:A2 *1672:D 0.000388
19 *1166:A2 *468:6 0.0001249
20 *1166:A2 *577:61 0
21 *142:6 *1669:inc 5.13692e-05
22 *142:6 *1672:C 8.95933e-05
23 *142:6 *577:61 0.000124989
24 *142:23 *1672:C 5.05521e-05
25 *1215:C1 *1163:A 4.18603e-06
26 *1549:D *1163:A 4.77701e-05
27 *1550:D *1166:A2 0
*RES
1 *1161:X *142:6 4.12 
2 *142:6 *1166:A2 13.82 
3 *142:6 *142:23 0.795 
4 *142:23 *1165:C 10.255 
5 *142:23 *1164:B 1.6 
6 *1161:X *1163:A 12.105 
*END

*D_NET *143 0.00216019
*CONN
*I *1163:B I *D sky130_fd_sc_hd__nor2_2
*I *1162:Y O *D sky130_fd_sc_hd__nor2_2
*CAP
1 *1163:B 0.000433062
2 *1162:Y 0.000433062
3 *1163:B *1143:A 0.000119242
4 *1163:B *1162:A 3.71665e-05
5 *1163:B *1215:A2 4.77719e-05
6 *1163:B *1215:B1 4.66108e-05
7 *1163:B *1669:clk 6.94735e-06
8 *1163:B *570:34 0.000631067
9 *1163:B *582:14 0.000140542
10 *1215:A1 *1163:B 0
11 *1216:A1 *1163:B 0.000124622
12 *1217:B2 *1163:B 0
13 *1549:D *1163:B 8.49205e-05
14 *127:6 *1163:B 5.51767e-05
*RES
1 *1162:Y *1163:B 17.865 
*END

*D_NET *144 0.00397642
*CONN
*I *1168:B I *D sky130_fd_sc_hd__nand2_2
*I *1167:A I *D sky130_fd_sc_hd__nor2_2
*I *1169:B I *D sky130_fd_sc_hd__or2_2
*I *1165:X O *D sky130_fd_sc_hd__and3_2
*CAP
1 *1168:B 0.000183208
2 *1167:A 0.000165347
3 *1169:B 0.000399642
4 *1165:X 0
5 *144:10 0.000795231
6 *144:4 0.00041345
7 *1167:A *1167:B 8.49205e-05
8 *1167:A *1527:CLK 8.49205e-05
9 *1167:A *1557:CLK 5.33085e-05
10 *1167:A *246:10 6.10014e-05
11 *1167:A *426:8 0.000277079
12 *1167:A *426:14 4.2021e-05
13 *1168:B *1146:A 5.05521e-05
14 *1168:B *1165:B 8.65905e-05
15 *1168:B *1171:B 4.9253e-06
16 *1168:B *1672:C 0.000158384
17 *1169:B *1221:A2 0.000101502
18 *1169:B *1221:B1 1.20741e-05
19 *1169:B *1222:B1 5.30673e-05
20 *1169:B *1646:A 0.000122331
21 *1169:B *577:61 1.03423e-05
22 *1169:B *585:43 8.58512e-05
23 *144:10 *1146:A 0
24 *144:10 *1165:B 8.8266e-05
25 *144:10 *1646:A 0
26 *144:10 *1672:C 6.02072e-05
27 *144:10 *426:14 9.17274e-05
28 *144:10 *469:10 1.38321e-05
29 *144:10 *469:14 5.72152e-05
30 *144:10 *470:10 0
31 *1220:B2 *1167:A 0.00015169
32 *1220:B2 *1169:B 2.59926e-05
33 *1221:A1 *1169:B 4.99619e-05
34 *1551:D *1167:A 3.55416e-05
35 *1551:D *144:10 4.05312e-05
36 *130:14 *1168:B 8.8266e-05
37 *131:6 *1169:B 2.7441e-05
*RES
1 *1165:X *144:4 1.6 
2 *144:4 *144:10 6.56 
3 *144:10 *1169:B 10.605 
4 *144:10 *1167:A 8.835 
5 *144:4 *1168:B 6.22 
*END

*D_NET *145 0.00149803
*CONN
*I *1167:B I *D sky130_fd_sc_hd__nor2_2
*I *1166:Y O *D sky130_fd_sc_hd__a21oi_2
*CAP
1 *1167:B 0.000378925
2 *1166:Y 0.000378925
3 *1167:B *1527:CLK 8.05167e-05
4 *1167:B *1557:CLK 2.14129e-05
5 *1167:B *1623:A 0
6 *1167:B *426:8 0.000268548
7 *1167:B *426:14 0.000135415
8 *1167:B *469:10 7.23533e-05
9 *1167:A *1167:B 8.49205e-05
10 *1298:B *1167:B 7.25761e-05
11 *122:10 *1167:B 4.43871e-06
*RES
1 *1166:Y *1167:B 14.94 
*END

*D_NET *146 0.00120375
*CONN
*I *1170:A I *D sky130_fd_sc_hd__and2_2
*I *1171:B I *D sky130_fd_sc_hd__xnor2_2
*I *1168:Y O *D sky130_fd_sc_hd__nand2_2
*CAP
1 *1170:A 5.01687e-05
2 *1171:B 0.000383677
3 *1168:Y 0.000433846
4 *1170:A *1168:A 8.8266e-05
5 *1170:A *1672:C 1.61831e-05
6 *1171:B *1166:B1 0
7 *1171:B *1168:A 0
8 *1171:B *1221:B2 0.000174453
9 *1171:B *1552:CLK 0
10 *1171:B *1672:C 5.062e-06
11 *1171:B *426:36 0
12 *1171:B *537:160 4.71684e-05
13 *1171:B *580:36 0
14 *1168:B *1171:B 4.9253e-06
*RES
1 *1168:Y *1171:B 13.11 
2 *1168:Y *1170:A 4.34 
*END

*D_NET *147 0.000750056
*CONN
*I *1170:B I *D sky130_fd_sc_hd__and2_2
*I *1169:X O *D sky130_fd_sc_hd__or2_2
*CAP
1 *1170:B 0.000173811
2 *1169:X 0.000173811
3 *1170:B *1168:A 0.000162801
4 *1170:B *1169:A 4.82919e-05
5 *1170:B *426:36 4.76581e-05
6 *1170:B *471:33 5.02217e-05
7 *1170:B *579:52 5.66697e-05
8 *1552:D *1170:B 3.67924e-05
*RES
1 *1169:X *1170:B 11.58 
*END

*D_NET *148 0.000996385
*CONN
*I *1174:A_N I *D sky130_fd_sc_hd__and2b_2
*I *1176:B1 I *D sky130_fd_sc_hd__a21o_2
*I *1172:Y O *D sky130_fd_sc_hd__a21boi_2
*CAP
1 *1174:A_N 8.29113e-05
2 *1176:B1 0
3 *1172:Y 0.00022162
4 *148:12 0.000304531
5 *1174:A_N *1174:B 2.75229e-05
6 *148:12 *1174:B 5.69248e-06
7 *148:12 *149:10 3.48268e-05
8 *148:12 *453:10 3.57851e-05
9 *148:12 *532:122 0.000236821
10 *1176:A1 *1174:A_N 4.66742e-05
*RES
1 *1172:Y *148:12 9.155 
2 *148:12 *1176:B1 1.6 
3 *148:12 *1174:A_N 3.085 
*END

*D_NET *149 0.0017818
*CONN
*I *1174:B I *D sky130_fd_sc_hd__and2b_2
*I *1176:A2 I *D sky130_fd_sc_hd__a21o_2
*I *1173:Y O *D sky130_fd_sc_hd__nand3b_2
*CAP
1 *1174:B 0.000154132
2 *1176:A2 0
3 *1173:Y 0.000212254
4 *149:10 0.000366386
5 *1174:B *451:12 3.75728e-05
6 *1174:B *453:10 0
7 *149:10 *1155:A1 0.000111158
8 *149:10 *1155:A2 2.91894e-05
9 *149:10 *1668:addr[8] 0.000269012
10 *149:10 *432:30 0.000267331
11 *149:10 *451:12 1.09931e-05
12 *149:10 *453:10 0
13 *1174:A_N *1174:B 2.75229e-05
14 *1176:A1 *149:10 0.000144571
15 *138:12 *149:10 0.000111158
16 *148:12 *1174:B 5.69248e-06
17 *148:12 *149:10 3.48268e-05
*RES
1 *1173:Y *149:10 9.54 
2 *149:10 *1176:A2 3.6 
3 *149:10 *1174:B 5.955 
*END

*D_NET *150 0.00190459
*CONN
*I *1212:C I *D sky130_fd_sc_hd__and3_2
*I *1175:B I *D sky130_fd_sc_hd__xor2_2
*I *1174:X O *D sky130_fd_sc_hd__and2b_2
*CAP
1 *1212:C 5.23303e-05
2 *1175:B 0.000632735
3 *1174:X 0.000580405
4 *1175:B *1456:A 0
5 *1175:B *1668:addr[6] 9.48157e-05
6 *1175:B *179:42 0
7 *1212:C *1668:addr[8] 2.30292e-05
8 *1212:C *1668:addr[10] 0.000279787
9 *1175:A *1212:C 0.000241483
*RES
1 *1174:X *1175:B 13.04 
2 *1175:B *1212:C 4.4275 
*END

*D_NET *151 0.00354065
*CONN
*I *1184:A1 I *D sky130_fd_sc_hd__a21oi_2
*I *1187:A1 I *D sky130_fd_sc_hd__a311oi_2
*I *1180:A I *D sky130_fd_sc_hd__xor2_2
*I *1176:X O *D sky130_fd_sc_hd__a21o_2
*CAP
1 *1184:A1 6.93699e-05
2 *1187:A1 8.99033e-05
3 *1180:A 0.000148068
4 *1176:X 0.000608565
5 *151:23 0.000402356
6 *151:10 0.000999716
7 *1180:A *1180:B 0.000106392
8 *1180:A *1186:B 0
9 *1180:A *573:82 0
10 *1184:A1 *1178:C 4.82863e-05
11 *1184:A1 *1186:B 1.3154e-05
12 *1184:A1 *154:25 2.99518e-06
13 *1184:A1 *154:31 1.23137e-05
14 *1184:A1 *155:12 9.37731e-05
15 *1184:A1 *157:14 0.000142754
16 *1187:A1 *1183:A 4.82919e-05
17 *1187:A1 *1187:A2 3.26889e-05
18 *1187:A1 *154:31 8.696e-05
19 *1187:A1 *160:6 7.05395e-05
20 *1187:A1 *179:42 1.12578e-05
21 *151:10 *1179:B 7.31758e-05
22 *151:10 *1180:B 6.078e-05
23 *151:10 *453:8 2.50059e-05
24 *151:10 *582:81 0
25 *151:23 *1183:A 3.83041e-05
26 *151:23 *1183:B 4.35348e-05
27 *151:23 *1185:A 6.65725e-05
28 *151:23 *1185:B 0.0001249
29 *151:23 *157:14 4.99619e-05
30 *151:23 *179:42 5.5626e-05
31 *1565:D *151:10 1.54049e-05
*RES
1 *1176:X *151:10 12.675 
2 *151:10 *1180:A 6 
3 *151:10 *151:23 6.59 
4 *151:23 *1187:A1 3.79 
5 *151:23 *1184:A1 7.685 
*END

*D_NET *152 0.00212829
*CONN
*I *1179:A I *D sky130_fd_sc_hd__nor2_2
*I *1184:B1 I *D sky130_fd_sc_hd__a21oi_2
*I *1186:B I *D sky130_fd_sc_hd__and2b_2
*I *1177:Y O *D sky130_fd_sc_hd__a21boi_2
*CAP
1 *1179:A 0.000229748
2 *1184:B1 0
3 *1186:B 0.0002215
4 *1177:Y 0.000357198
5 *152:12 0.00034895
6 *1179:A *1177:A1 7.00889e-06
7 *1179:A *1177:A2 1.83756e-05
8 *1179:A *1355:A2 4.9253e-06
9 *1179:A *154:10 7.06865e-05
10 *1179:A *425:96 0.000113797
11 *1179:A *454:14 0
12 *1179:A *532:100 5.23591e-05
13 *1179:A *559:31 9.50342e-06
14 *1186:B *1177:B1_N 2.08556e-05
15 *1186:B *1183:B 4.40414e-05
16 *1186:B *1187:B1 0
17 *1186:B *154:25 0
18 *1186:B *157:14 4.87759e-05
19 *1186:B *573:82 0.000186607
20 *152:12 *599:DIODE 0.00015639
21 *152:12 *1178:B 0
22 *152:12 *1178:C 8.88799e-05
23 *152:12 *1180:B 0
24 *152:12 *582:81 0.000135533
25 *1180:A *1186:B 0
26 *1184:A1 *1186:B 1.3154e-05
*RES
1 *1177:Y *152:12 8.72 
2 *152:12 *1186:B 9.53 
3 *152:12 *1184:B1 1.6 
4 *1177:Y *1179:A 10.755 
*END

*D_NET *153 0.00139427
*CONN
*I *1179:B I *D sky130_fd_sc_hd__nor2_2
*I *1178:X O *D sky130_fd_sc_hd__and3b_2
*CAP
1 *1179:B 0.000424055
2 *1178:X 0.000424055
3 *1179:B *599:DIODE 8.8266e-05
4 *1179:B *1353:B 6.00849e-06
5 *1179:B *1355:A1 0.000158851
6 *1179:B *1355:B1 4.54938e-05
7 *1179:B *1433:A 9.50342e-06
8 *1179:B *1433:B 1.03833e-05
9 *1179:B *1565:CLK 6.40411e-05
10 *1565:D *1179:B 9.044e-05
11 *151:10 *1179:B 7.31758e-05
*RES
1 *1178:X *1179:B 13.83 
*END

*D_NET *154 0.0124601
*CONN
*I *1184:A2 I *D sky130_fd_sc_hd__a21oi_2
*I *1187:A2 I *D sky130_fd_sc_hd__a311oi_2
*I *1243:A I *D sky130_fd_sc_hd__nand3_2
*I *1213:B I *D sky130_fd_sc_hd__and4b_2
*I *1180:B I *D sky130_fd_sc_hd__xor2_2
*I *1179:Y O *D sky130_fd_sc_hd__nor2_2
*CAP
1 *1184:A2 0
2 *1187:A2 4.52871e-05
3 *1243:A 0
4 *1213:B 0.00167421
5 *1180:B 0.000317823
6 *1179:Y 0.000148557
7 *154:41 0.00210337
8 *154:31 0.000627335
9 *154:25 0.000742361
10 *154:10 0.00105585
11 *1180:B *1178:B 2.46089e-05
12 *1180:B *1565:CLK 6.28687e-05
13 *1180:B *1668:addr[9] 0
14 *1180:B *582:81 0
15 *1187:A2 *160:6 8.49205e-05
16 *1187:A2 *452:51 4.82919e-05
17 *1213:B *1204:A 0.000199833
18 *1213:B *1213:C 4.99619e-05
19 *1213:B *1213:D 1.03423e-05
20 *1213:B *1348:B 0.000178321
21 *1213:B *1350:C 3.96088e-05
22 *1213:B *1362:A 8.3974e-05
23 *1213:B *1363:B1 0
24 *1213:B *1372:B 0
25 *1213:B *1382:B 0
26 *1213:B *1431:A 6.19093e-05
27 *1213:B *1441:A 0.000665309
28 *1213:B *1525:GATE 0.000207821
29 *1213:B *1668:addr[3] 5.4737e-05
30 *1213:B *208:8 2.75145e-05
31 *1213:B *291:10 0.00018877
32 *1213:B *300:22 0.00114507
33 *1213:B *350:12 5.72729e-05
34 *1213:B *378:42 0.000512853
35 *1213:B *452:22 0.000260691
36 *1213:B *456:29 0
37 *1213:B *457:10 5.03222e-05
38 *1213:B *460:61 4.43871e-06
39 *1213:B *533:46 3.79595e-05
40 *154:10 *1178:B 1.07684e-05
41 *154:10 *1565:CLK 5.03211e-05
42 *154:10 *425:96 7.12228e-06
43 *154:10 *454:14 5.27452e-05
44 *154:10 *559:41 8.23457e-05
45 *154:25 *1177:B1_N 0
46 *154:25 *179:42 1.38088e-05
47 *154:25 *455:18 0
48 *154:25 *532:88 0.000153102
49 *154:25 *532:100 0.000275548
50 *154:31 *155:12 3.67779e-05
51 *154:31 *160:6 9.47972e-06
52 *154:31 *179:42 3.53774e-05
53 *154:41 *1668:addr[3] 4.33974e-05
54 *154:41 *208:8 2.16917e-05
55 *154:41 *452:38 4.39611e-05
56 *154:41 *452:51 0.000288651
57 *154:41 *456:29 4.43682e-05
58 *154:41 *574:92 0.000145615
59 *1179:A *154:10 7.06865e-05
60 *1180:A *1180:B 0.000106392
61 *1184:A1 *154:25 2.99518e-06
62 *1184:A1 *154:31 1.23137e-05
63 *1186:B *154:25 0
64 *1187:A1 *1187:A2 3.26889e-05
65 *1187:A1 *154:31 8.696e-05
66 *1565:D *1180:B 0
67 *151:10 *1180:B 6.078e-05
68 *152:12 *1180:B 0
*RES
1 *1179:Y *154:10 6.54 
2 *154:10 *1180:B 7.715 
3 *154:10 *154:25 11.95 
4 *154:25 *154:31 4.52 
5 *154:31 *154:41 10.765 
6 *154:41 *1213:B 37.4285 
7 *154:41 *1243:A 1.6 
8 *154:31 *1187:A2 3.01 
9 *154:25 *1184:A2 3.6 
*END

*D_NET *155 0.000999757
*CONN
*I *1183:A I *D sky130_fd_sc_hd__nor2_2
*I *1187:C1 I *D sky130_fd_sc_hd__a311oi_2
*I *1181:Y O *D sky130_fd_sc_hd__a21boi_2
*CAP
1 *1183:A 1.65756e-05
2 *1187:C1 0
3 *1181:Y 0.000221264
4 *155:12 0.00023784
5 *1183:A *1183:B 4.82919e-05
6 *1183:A *179:42 2.16833e-05
7 *155:12 *1187:B1 5.53249e-06
8 *155:12 *157:14 0.000231423
9 *155:12 *179:42 0
10 *1184:A1 *155:12 9.37731e-05
11 *1187:A1 *1183:A 4.82919e-05
12 *151:23 *1183:A 3.83041e-05
13 *154:31 *155:12 3.67779e-05
*RES
1 *1181:Y *155:12 9.155 
2 *155:12 *1187:C1 1.6 
3 *155:12 *1183:A 2.395 
*END

*D_NET *156 0.00198557
*CONN
*I *1186:A_N I *D sky130_fd_sc_hd__and2b_2
*I *1183:B I *D sky130_fd_sc_hd__nor2_2
*I *1182:X O *D sky130_fd_sc_hd__and3b_2
*CAP
1 *1186:A_N 0
2 *1183:B 0.000195708
3 *1182:X 0.000187201
4 *156:12 0.000382909
5 *1183:B *1185:A 0
6 *1183:B *1187:B1 3.83305e-05
7 *1183:B *1428:A 0
8 *1183:B *179:42 0.000123225
9 *156:12 *1191:A 0
10 *156:12 *1428:B 1.69186e-05
11 *156:12 *1668:addr[3] 1.61831e-05
12 *156:12 *1668:addr[10] 0.000426295
13 *156:12 *432:30 0.000462929
14 *1183:A *1183:B 4.82919e-05
15 *1186:B *1183:B 4.40414e-05
16 *151:23 *1183:B 4.35348e-05
*RES
1 *1182:X *156:12 11.48 
2 *156:12 *1183:B 9.44 
3 *156:12 *1186:A_N 1.6 
*END

*D_NET *157 0.0026447
*CONN
*I *1185:A I *D sky130_fd_sc_hd__xnor2_2
*I *1187:A3 I *D sky130_fd_sc_hd__a311oi_2
*I *1243:B I *D sky130_fd_sc_hd__nand3_2
*I *1183:Y O *D sky130_fd_sc_hd__nor2_2
*CAP
1 *1185:A 5.50611e-05
2 *1187:A3 9.87003e-05
3 *1243:B 0.000143312
4 *1183:Y 0.000304587
5 *157:14 0.000491538
6 *1185:A *1185:B 0.00012657
7 *1185:A *179:42 0.000241483
8 *1187:A3 *1436:B1 7.03353e-05
9 *1187:A3 *160:6 4.99619e-05
10 *1187:A3 *452:51 4.82919e-05
11 *1187:A3 *574:92 0
12 *1243:B *1243:C 8.77516e-05
13 *1243:B *179:42 3.66286e-05
14 *1243:B *208:8 3.21081e-06
15 *1243:B *456:29 1.06624e-05
16 *1243:B *574:92 4.21579e-05
17 *157:14 *1178:C 0.000182534
18 *157:14 *1181:A2 1.91597e-05
19 *157:14 *179:42 9.32633e-05
20 *1183:B *1185:A 0
21 *1184:A1 *157:14 0.000142754
22 *1186:B *157:14 4.87759e-05
23 *151:23 *1185:A 6.65725e-05
24 *151:23 *157:14 4.99619e-05
25 *155:12 *157:14 0.000231423
*RES
1 *1183:Y *157:14 11.42 
2 *157:14 *1243:B 4.135 
3 *157:14 *1187:A3 7.685 
4 *1183:Y *1185:A 5.735 
*END

*D_NET *158 0.000884154
*CONN
*I *1185:B I *D sky130_fd_sc_hd__xnor2_2
*I *1184:Y O *D sky130_fd_sc_hd__a21oi_2
*CAP
1 *1185:B 0.000146319
2 *1184:Y 0.000146319
3 *1185:B *1178:C 0.000119756
4 *1185:B *573:82 0.000116158
5 *1185:B *582:81 0.000104132
6 *1185:A *1185:B 0.00012657
7 *151:23 *1185:B 0.0001249
*RES
1 *1184:Y *1185:B 10.86 
*END

*D_NET *159 0.00086546
*CONN
*I *1187:B1 I *D sky130_fd_sc_hd__a311oi_2
*I *1186:X O *D sky130_fd_sc_hd__and2b_2
*CAP
1 *1187:B1 0.000280589
2 *1186:X 0.000280589
3 *1187:B1 *1428:A 0
4 *1187:B1 *179:42 1.37448e-05
5 *1187:B1 *432:30 0.000246673
6 *1183:B *1187:B1 3.83305e-05
7 *1186:B *1187:B1 0
8 *155:12 *1187:B1 5.53249e-06
*RES
1 *1186:X *1187:B1 11.355 
*END

*D_NET *160 0.00354481
*CONN
*I *1666:A I *D sky130_fd_sc_hd__buf_1
*I *1396:A1 I *D sky130_fd_sc_hd__o31a_2
*I *1195:A1 I *D sky130_fd_sc_hd__o21bai_2
*I *1187:Y O *D sky130_fd_sc_hd__a311oi_2
*CAP
1 *1666:A 1.36926e-05
2 *1396:A1 0.000131897
3 *1195:A1 0
4 *1187:Y 0.000248899
5 *160:14 0.000450764
6 *160:6 0.000581459
7 *1396:A1 *1195:B1_N 4.99619e-05
8 *1396:A1 *1396:A2 0.00013077
9 *1396:A1 *161:24 0.000308719
10 *1396:A1 *574:54 0.000132052
11 *1396:A1 *574:77 0
12 *1396:A1 *575:100 0.000185033
13 *1666:A *452:38 6.55927e-05
14 *160:6 *1182:B 0.000156263
15 *160:6 *179:42 0.000159059
16 *160:6 *452:38 0.000264906
17 *160:6 *452:51 0.000106558
18 *160:14 *1188:A2 5.30673e-05
19 *160:14 *1188:B1_N 4.66108e-05
20 *160:14 *1190:A 4.82863e-05
21 *160:14 *161:24 7.21619e-05
22 *160:14 *452:38 9.27255e-06
23 *160:14 *574:77 3.25368e-05
24 *160:14 *575:100 8.23457e-05
25 *1187:A1 *160:6 7.05395e-05
26 *1187:A2 *160:6 8.49205e-05
27 *1187:A3 *160:6 4.99619e-05
28 *154:31 *160:6 9.47972e-06
*RES
1 *1187:Y *160:6 8.95 
2 *160:6 *160:14 5.49 
3 *160:14 *1195:A1 1.6 
4 *160:14 *1396:A1 10.46 
5 *160:6 *1666:A 2.41 
*END

*D_NET *161 0.00269197
*CONN
*I *1195:B1_N I *D sky130_fd_sc_hd__o21bai_2
*I *1395:A1 I *D sky130_fd_sc_hd__a21oi_2
*I *1190:A I *D sky130_fd_sc_hd__or2_2
*I *1188:Y O *D sky130_fd_sc_hd__a21boi_2
*CAP
1 *1195:B1_N 4.42408e-05
2 *1395:A1 0.000268902
3 *1190:A 0.000123256
4 *1188:Y 0.000526695
5 *161:24 0.000716582
6 *1190:A *1190:B 7.854e-05
7 *1190:A *1668:addr[3] 0
8 *1190:A *574:77 1.83756e-05
9 *1195:B1_N *575:100 0.000102479
10 *1395:A1 *1235:A1 4.23997e-05
11 *1395:A1 *575:100 0.000171713
12 *1395:A1 *576:109 3.39597e-05
13 *161:24 *574:77 8.57024e-05
14 *1396:A1 *1195:B1_N 4.99619e-05
15 *1396:A1 *161:24 0.000308719
16 *160:14 *1190:A 4.82863e-05
17 *160:14 *161:24 7.21619e-05
*RES
1 *1188:Y *1190:A 9.54 
2 *1188:Y *161:24 6.88 
3 *161:24 *1395:A1 9.71 
4 *161:24 *1195:B1_N 3.01 
*END

*D_NET *162 0.00121878
*CONN
*I *1190:B I *D sky130_fd_sc_hd__or2_2
*I *1189:X O *D sky130_fd_sc_hd__and3b_2
*CAP
1 *1190:B 0.000293225
2 *1189:X 0.000293225
3 *1190:B *1188:A2 6.0021e-05
4 *1190:B *1189:A_N 4.04888e-05
5 *1190:B *1189:C 0.00012672
6 *1190:B *1196:B 0
7 *1190:B *1348:B 0.000196376
8 *1190:B *1668:addr[3] 2.05056e-05
9 *1190:B *208:8 6.20063e-05
10 *1190:B *574:77 4.76725e-05
11 *1190:A *1190:B 7.854e-05
*RES
1 *1189:X *1190:B 13.56 
*END

*D_NET *163 0.00684816
*CONN
*I *1191:B I *D sky130_fd_sc_hd__xor2_2
*I *1396:A2 I *D sky130_fd_sc_hd__o31a_2
*I *1400:A I *D sky130_fd_sc_hd__or4_2
*I *1244:B I *D sky130_fd_sc_hd__or3b_2
*I *1195:A2 I *D sky130_fd_sc_hd__o21bai_2
*I *1190:X O *D sky130_fd_sc_hd__or2_2
*CAP
1 *1191:B 4.74301e-05
2 *1396:A2 6.00659e-05
3 *1400:A 7.9432e-05
4 *1244:B 0.000189305
5 *1195:A2 0
6 *1190:X 0.000531542
7 *163:33 0.00105175
8 *163:25 0.000937833
9 *163:12 0.000578862
10 *1191:B *432:30 7.25921e-05
11 *1244:B *569:40 0.000249969
12 *1396:A2 *1196:A 0.000140441
13 *1396:A2 *574:54 5.02814e-06
14 *1400:A *1400:C 6.14983e-05
15 *1400:A *569:40 6.30765e-05
16 *163:12 *1196:B 0
17 *163:12 *432:30 0.000274659
18 *163:12 *457:37 4.76303e-05
19 *163:12 *574:77 6.58955e-06
20 *163:25 *1196:A 4.61701e-06
21 *163:25 *1668:addr[0] 7.25013e-05
22 *163:25 *573:82 0.000153048
23 *163:33 *1397:A2 6.36031e-05
24 *163:33 *1397:B1 6.05212e-05
25 *163:33 *1400:C 2.38663e-05
26 *163:33 *1668:addr[0] 0.000289246
27 *163:33 *569:40 7.22242e-05
28 *163:33 *573:82 0.00122616
29 *163:33 *575:100 0.000353897
30 *1396:A1 *1396:A2 0.00013077
*RES
1 *1190:X *163:12 9.24 
2 *163:12 *1195:A2 3.6 
3 *163:12 *163:25 1.00357 
4 *163:25 *163:33 5.38003 
5 *163:33 *1244:B 6.12 
6 *163:33 *1400:A 5.235 
7 *163:25 *1396:A2 5.8625 
8 *1190:X *1191:B 2.6875 
*END

*D_NET *164 0.00144799
*CONN
*I *1194:A_N I *D sky130_fd_sc_hd__nand2b_2
*I *1395:B1 I *D sky130_fd_sc_hd__a21oi_2
*I *1192:X O *D sky130_fd_sc_hd__and3_2
*CAP
1 *1194:A_N 0
2 *1395:B1 0.000151815
3 *1192:X 0.000245661
4 *164:10 0.000397476
5 *1395:B1 *1189:C 0
6 *1395:B1 *1194:B 1.67619e-05
7 *1395:B1 *1196:A 4.43871e-06
8 *1395:B1 *1235:A1 0
9 *1395:B1 *1396:B1 6.27347e-05
10 *1395:B1 *1398:A2 8.8266e-05
11 *1395:B1 *166:17 3.96326e-05
12 *1395:B1 *583:76 0.000181076
13 *164:10 *1189:C 0
14 *164:10 *1193:A1 1.23015e-05
15 *164:10 *378:42 0.000237243
16 *164:10 *532:40 0
17 *164:10 *532:88 0
18 *164:10 *583:76 1.05827e-05
*RES
1 *1192:X *164:10 7.155 
2 *164:10 *1395:B1 7.335 
3 *164:10 *1194:A_N 3.6 
*END

*D_NET *165 0.00172956
*CONN
*I *1194:B I *D sky130_fd_sc_hd__nand2b_2
*I *1395:A2 I *D sky130_fd_sc_hd__a21oi_2
*I *1193:X O *D sky130_fd_sc_hd__a21o_2
*CAP
1 *1194:B 0.00024927
2 *1395:A2 0.000112402
3 *1193:X 0
4 *165:4 0.000361672
5 *1194:B *1189:C 0.00012126
6 *1194:B *1193:B1 3.57349e-05
7 *1194:B *1235:A1 5.63183e-05
8 *1194:B *1381:B1 1.56428e-05
9 *1194:B *1668:addr[0] 5.61165e-05
10 *1194:B *1668:addr[1] 5.40483e-06
11 *1194:B *166:17 1.7635e-05
12 *1194:B *535:18 5.79855e-05
13 *1194:B *574:54 0.000120717
14 *1194:B *583:76 0.000111161
15 *1395:A2 *1192:C 2.85364e-05
16 *1395:A2 *1193:B1 0.000123225
17 *1395:A2 *1381:B1 5.71564e-05
18 *1395:A2 *535:18 4.99159e-05
19 *1395:A2 *576:109 0.000132645
20 *1395:B1 *1194:B 1.67619e-05
*RES
1 *1193:X *165:4 1.6 
2 *165:4 *1395:A2 8.63 
3 *165:4 *1194:B 9.0974 
*END

*D_NET *166 0.0049508
*CONN
*I *1236:A1 I *D sky130_fd_sc_hd__a21o_2
*I *1244:C_N I *D sky130_fd_sc_hd__or3b_2
*I *1396:A3 I *D sky130_fd_sc_hd__o31a_2
*I *1196:A I *D sky130_fd_sc_hd__xor2_2
*I *1400:B I *D sky130_fd_sc_hd__or4_2
*I *1194:Y O *D sky130_fd_sc_hd__nand2b_2
*CAP
1 *1236:A1 5.33271e-05
2 *1244:C_N 0.000163274
3 *1396:A3 0
4 *1196:A 0.00033638
5 *1400:B 0.00109233
6 *1194:Y 0
7 *166:17 0.000361499
8 *166:4 0.0010075
9 *1196:A *1189:C 4.0136e-05
10 *1196:A *1196:B 0.000153004
11 *1196:A *1236:B1 0
12 *1196:A *457:37 0
13 *1196:A *574:54 2.96837e-05
14 *1236:A1 *1236:A2 8.8266e-05
15 *1244:C_N *1247:B 8.94249e-05
16 *1244:C_N *1400:C 0.000111459
17 *1244:C_N *197:20 9.4087e-05
18 *1244:C_N *569:40 0.000386226
19 *1400:B *1193:A1 3.00381e-05
20 *1400:B *1193:A2 6.83659e-05
21 *1400:B *1193:B1 0.000230429
22 *1400:B *1381:A2 7.43003e-05
23 *1400:B *1381:B1 1.9415e-05
24 *1400:B *1382:A_N 3.33749e-05
25 *1400:B *1398:A2 0.000109817
26 *1400:B *1400:D 0.000113255
27 *166:17 *1189:C 3.79853e-05
28 *166:17 *1193:A2 2.04592e-05
29 *1194:B *166:17 1.7635e-05
30 *1395:B1 *1196:A 4.43871e-06
31 *1395:B1 *166:17 3.96326e-05
32 *1396:A2 *1196:A 0.000140441
33 *163:25 *1196:A 4.61701e-06
*RES
1 *1194:Y *166:4 1.6 
2 *166:4 *1400:B 13.09 
3 *166:4 *166:17 3.575 
4 *166:17 *1196:A 8.835 
5 *166:17 *1396:A3 3.6 
6 *1400:B *1244:C_N 12.135 
7 *1196:A *1236:A1 4.34 
*END

*D_NET *167 0.000635262
*CONN
*I *1236:A2 I *D sky130_fd_sc_hd__a21o_2
*I *1196:B I *D sky130_fd_sc_hd__xor2_2
*I *1195:Y O *D sky130_fd_sc_hd__o21bai_2
*CAP
1 *1236:A2 8.26338e-05
2 *1196:B 0.000196996
3 *1195:Y 0.000114362
4 *1196:B *1236:B1 0
5 *1190:B *1196:B 0
6 *1196:A *1196:B 0.000153004
7 *1236:A1 *1236:A2 8.8266e-05
8 *163:12 *1196:B 0
*RES
1 *1195:Y *1196:B 7.745 
2 *1196:B *1236:A2 3.0475 
*END

*D_NET *168 0.000436875
*CONN
*I *1198:B I *D sky130_fd_sc_hd__or4bb_2
*I *1197:Y O *D sky130_fd_sc_hd__nand2_2
*CAP
1 *1198:B 7.48105e-05
2 *1197:Y 7.48105e-05
3 *1198:B *1198:A 0
4 *1198:B *1208:B1 0.000180887
5 *1198:B *577:61 9.76865e-05
6 *1198:B *580:47 8.68042e-06
*RES
1 *1197:Y *1198:B 9.6 
*END

*D_NET *169 0.00154302
*CONN
*I *1209:B I *D sky130_fd_sc_hd__and2b_2
*I *1201:A I *D sky130_fd_sc_hd__or3_2
*I *1198:X O *D sky130_fd_sc_hd__or4bb_2
*CAP
1 *1209:B 0.000162619
2 *1201:A 0.000371206
3 *1198:X 0.000533824
4 *1201:A *1201:C 9.50342e-06
5 *1201:A *1205:C1 0
6 *1201:A *1237:B 0
7 *1201:A *1447:A 0.000124895
8 *1201:A *1447:B 1.46828e-05
9 *1201:A *172:22 0
10 *1201:A *195:10 0
11 *1201:A *579:52 0.000275548
12 *1209:B *1198:A 5.07419e-05
13 *1209:B *1208:B1 0
14 *1209:B *579:67 0
*RES
1 *1198:X *1201:A 12.48 
2 *1198:X *1209:B 9.465 
*END

*D_NET *170 0.000443017
*CONN
*I *1201:B I *D sky130_fd_sc_hd__or3_2
*I *1199:X O *D sky130_fd_sc_hd__and3_2
*CAP
1 *1201:B 0.000159399
2 *1199:X 0.000159399
3 *1201:B *1199:B 5.53249e-06
4 *1201:B *1201:C 0
5 *1201:B *576:46 2.46007e-05
6 *1201:B *578:44 9.4087e-05
*RES
1 *1199:X *1201:B 9.555 
*END

*D_NET *171 0.000416906
*CONN
*I *1201:C I *D sky130_fd_sc_hd__or3_2
*I *1200:Y O *D sky130_fd_sc_hd__a21oi_2
*CAP
1 *1201:C 0.000201608
2 *1200:Y 0.000201608
3 *1201:C *1199:B 0
4 *1201:C *1205:C1 4.18603e-06
5 *1201:C *1237:B 0
6 *1201:C *576:46 0
7 *1201:A *1201:C 9.50342e-06
8 *1201:B *1201:C 0
*RES
1 *1200:Y *1201:C 10.11 
*END

*D_NET *172 0.010448
*CONN
*I *1202:A I *D sky130_fd_sc_hd__inv_2
*I *1203:B I *D sky130_fd_sc_hd__or2_2
*I *1201:X O *D sky130_fd_sc_hd__or3_2
*CAP
1 *1202:A 0.00131372
2 *1203:B 1.55357e-05
3 *1201:X 0.00244842
4 *172:22 0.00377767
5 *1202:A *1424:B 9.84247e-05
6 *1202:A *1429:B 2.09975e-05
7 *1202:A *1436:B2 0
8 *1202:A *1529:D 4.66108e-05
9 *1202:A *433:42 8.35106e-05
10 *1202:A *433:79 0
11 *1203:B *1203:A 2.23203e-05
12 *1203:B *434:74 2.23203e-05
13 *172:22 *1251:B 0.000210144
14 *172:22 *1253:C 0.000261891
15 *172:22 *1269:B1_N 3.96088e-05
16 *172:22 *1406:A0 0
17 *172:22 *1406:A2 8.82557e-05
18 *172:22 *1420:A2 4.32126e-05
19 *172:22 *1421:A1 0
20 *172:22 *1448:A 0
21 *172:22 *1448:B 0
22 *172:22 *1449:A 0
23 *172:22 *1449:C 6.69172e-05
24 *172:22 *1449:D 3.86607e-05
25 *172:22 *1487:S 4.21256e-05
26 *172:22 *195:10 4.75576e-05
27 *172:22 *195:27 4.35754e-05
28 *172:22 *338:10 8.48268e-05
29 *172:22 *339:20 0.000340931
30 *172:22 *540:14 0
31 *172:22 *548:39 0.000229904
32 *172:22 *570:64 6.58102e-05
33 *172:22 *577:85 0.00012657
34 *172:22 *579:67 0
35 *172:22 *580:72 0
36 *172:22 *586:147 0.000690853
37 uio_out[0] *1202:A 0
38 uio_out[0] *172:22 0
39 uio_out[1] *172:22 0
40 uo_out[5] *1202:A 0
41 uo_out[7] *172:22 0
42 *1201:A *172:22 0
43 *1530:D *172:22 0.000177644
44 *1582:D *172:22 0
45 *134:93 *1202:A 0
46 *134:93 *172:22 0
*RES
1 *1201:X *172:22 40.711 
2 *172:22 *1203:B 4.5875 
3 *172:22 *1202:A 8.3835 
*END

*D_NET *173 0.00816687
*CONN
*I *1373:A2 I *D sky130_fd_sc_hd__a211o_2
*I *1375:C I *D sky130_fd_sc_hd__and3_2
*I *1378:A1 I *D sky130_fd_sc_hd__o211a_2
*I *1204:A I *D sky130_fd_sc_hd__inv_2
*I *1203:X O *D sky130_fd_sc_hd__or2_2
*CAP
1 *1373:A2 0
2 *1375:C 0.00055004
3 *1378:A1 5.1396e-05
4 *1204:A 0.000210014
5 *1203:X 0.000580639
6 *173:43 0.000829562
7 *173:33 0.00076263
8 *173:10 0.00132516
9 *1204:A *602:CLK 0
10 *1204:A *1213:D 9.78429e-05
11 *1204:A *1382:B 0.000205497
12 *1204:A *434:10 9.54399e-05
13 *1375:C *1375:A 8.49205e-05
14 *1375:C *1495:A 8.89085e-05
15 *1375:C *1495:B 0.000239809
16 *1375:C *297:14 2.97004e-06
17 *1375:C *460:10 1.44259e-05
18 *1375:C *461:14 0.000364831
19 *1375:C *461:18 0.000142768
20 *1375:C *502:26 2.39856e-05
21 *1375:C *518:40 0.000118446
22 *1375:C *528:18 0.000113373
23 *1378:A1 *461:18 2.87433e-05
24 *1378:A1 *518:40 8.24678e-05
25 *173:10 *1258:A1 0.00015896
26 *173:10 *1260:A 6.66507e-05
27 *173:10 *1424:A 3.77199e-05
28 *173:10 *434:10 0.000195151
29 *173:10 *434:21 0.000374764
30 *173:10 *434:36 0.000200176
31 *173:33 *1373:A1 2.75145e-05
32 *173:33 *1374:A2 3.72916e-05
33 *173:33 *425:10 6.40892e-05
34 *173:43 *1373:A1 7.23602e-05
35 *173:43 *1377:B 2.11674e-05
36 *173:43 *1378:A2 0.000111547
37 *173:43 *518:40 2.84177e-05
38 *602:GATE *1204:A 7.23533e-05
39 *1213:B *1204:A 0.000199833
40 *1526:GATE *1204:A 0
41 *1532:D *173:10 9.37731e-05
42 *1532:D *173:33 1.4399e-05
43 *1533:D *173:10 8.99611e-05
44 *1534:D *173:10 0.000185474
45 *1575:D *173:10 0
46 *1579:D *1375:C 0.000101402
*RES
1 *1203:X *173:10 17.22 
2 *173:10 *1204:A 9.45 
3 *173:10 *173:33 10.28 
4 *173:33 *173:43 7.7425 
5 *173:43 *1378:A1 3.25 
6 *173:43 *1375:C 17.7125 
7 *173:33 *1373:A2 1.6 
*END

*D_NET *174 0.00128779
*CONN
*I *1208:B1 I *D sky130_fd_sc_hd__a32o_2
*I *1205:X O *D sky130_fd_sc_hd__a211o_2
*CAP
1 *1208:B1 0.000383768
2 *1205:X 0.000383768
3 *1208:B1 *1198:A 0
4 *1208:B1 *1208:A1 5.16348e-05
5 *1208:B1 *1208:A2 4.9968e-05
6 *1208:B1 *1449:B 0
7 *1208:B1 *1527:CLK 9.23483e-05
8 *1208:B1 *176:12 9.23483e-05
9 *1208:B1 *577:68 5.30673e-05
10 *1208:B1 *579:67 0
11 *1208:B1 *580:47 0
12 *1198:B *1208:B1 0.000180887
13 *1209:B *1208:B1 0
*RES
1 *1205:X *1208:B1 14.325 
*END

*D_NET *175 0.00706255
*CONN
*I *1411:A I *D sky130_fd_sc_hd__nor2_2
*I *1417:B2 I *D sky130_fd_sc_hd__o22ai_2
*I *1210:A2 I *D sky130_fd_sc_hd__o21ai_2
*I *1207:B I *D sky130_fd_sc_hd__or2_2
*I *1206:X O *D sky130_fd_sc_hd__or2_2
*CAP
1 *1411:A 0.000947227
2 *1417:B2 8.40422e-05
3 *1210:A2 0
4 *1207:B 0
5 *1206:X 0.000147194
6 *175:38 0.00117406
7 *175:25 0.000680341
8 *175:8 0.000684742
9 *1411:A *1292:C 0.000204447
10 *1411:A *1293:A 3.82018e-05
11 *1411:A *1293:C 0.000511195
12 *1411:A *1410:S 7.86318e-05
13 *1411:A *1411:B 0
14 *1411:A *1419:B1 7.67259e-05
15 *1411:A *1420:A1 5.08304e-06
16 *1411:A *1420:A2 2.29156e-05
17 *1411:A *1421:A1 5.65539e-05
18 *1411:A *334:8 0.000141173
19 *1411:A *338:10 0
20 *1411:A *345:12 0.000428361
21 *1411:A *435:12 1.86955e-05
22 *1411:A *447:14 1.15688e-05
23 *1411:A *448:12 0.00012657
24 *1411:A *448:20 0.000180675
25 *1411:A *540:33 8.17646e-05
26 *1417:B2 *1210:A1 3.68682e-05
27 *1417:B2 *1418:B 4.82919e-05
28 *1417:B2 *1603:A 9.54399e-05
29 *175:8 *1214:A_N 4.99619e-05
30 *175:8 *1219:A_N 0.000201503
31 *175:8 *1527:CLK 1.43253e-05
32 *175:8 *472:27 0.000299823
33 *175:25 *1207:A 4.66108e-05
34 *175:25 *1208:A1 0
35 *175:25 *1209:A_N 0
36 *175:25 *1210:A1 0
37 *175:25 *1211:D1 0
38 *175:25 *1222:B1 0.000178797
39 *175:25 *1418:B 7.26758e-05
40 *175:25 *1527:CLK 0.000119242
41 *175:25 *1603:A 0
42 *175:25 *587:68 0
43 *175:25 *588:36 1.00941e-05
44 *175:25 *589:48 0
45 *175:38 *1210:A1 4.55864e-06
46 *175:38 *1418:B 1.43729e-05
47 *175:38 *1603:A 1.07563e-05
48 *175:38 *345:12 0.000159059
*RES
1 *1206:X *175:8 5.515 
2 *175:8 *1207:B 1.6 
3 *175:8 *175:25 10.97 
4 *175:25 *1210:A2 3.6 
5 *175:25 *175:38 4.1 
6 *175:38 *1417:B2 7.535 
7 *175:38 *1411:A 24.86 
*END

*D_NET *176 0.00130564
*CONN
*I *1404:S I *D sky130_fd_sc_hd__mux2_1
*I *1208:A3 I *D sky130_fd_sc_hd__a32o_2
*I *1207:X O *D sky130_fd_sc_hd__or2_2
*CAP
1 *1404:S 0.000124591
2 *1208:A3 0
3 *1207:X 0.000184942
4 *176:12 0.000309533
5 *1404:S *1404:A0 4.82919e-05
6 *1404:S *1527:CLK 0.00023468
7 *1404:S *580:72 2.05056e-05
8 *176:12 *1208:A2 4.66108e-05
9 *176:12 *1208:B2 3.95698e-05
10 *176:12 *1527:CLK 0.000204566
11 *1208:B1 *176:12 9.23483e-05
*RES
1 *1207:X *176:12 5.635 
2 *176:12 *1208:A3 1.6 
3 *176:12 *1404:S 4.48 
*END

*D_NET *177 0.000887608
*CONN
*I *1209:A_N I *D sky130_fd_sc_hd__and2b_2
*I *1208:X O *D sky130_fd_sc_hd__a32o_2
*CAP
1 *1209:A_N 0.000236674
2 *1208:X 0.000236674
3 *1209:A_N *1222:B1 0
4 *1209:A_N *1553:RESET_B 0.000236355
5 *1209:A_N *580:47 9.37731e-05
6 *1209:A_N *580:72 8.41308e-05
7 *175:25 *1209:A_N 0
*RES
1 *1208:X *1209:A_N 11.52 
*END

*D_NET *178 0.000369709
*CONN
*I *1211:D1 I *D sky130_fd_sc_hd__o2111ai_2
*I *1210:Y O *D sky130_fd_sc_hd__o21ai_2
*CAP
1 *1211:D1 9.86638e-05
2 *1210:Y 9.86638e-05
3 *1211:D1 *1603:A 0.000116165
4 *1211:D1 *586:103 2.68464e-05
5 *1211:D1 *587:72 2.937e-05
6 *175:25 *1211:D1 0
*RES
1 *1210:Y *1211:D1 9.39 
*END

*D_NET *179 0.0127076
*CONN
*I *1213:D I *D sky130_fd_sc_hd__and4b_2
*I *1243:C I *D sky130_fd_sc_hd__nand3_2
*I *1212:X O *D sky130_fd_sc_hd__and3_2
*CAP
1 *1213:D 0.00195529
2 *1243:C 1.60961e-05
3 *1212:X 0.00176289
4 *179:42 0.00373427
5 *1213:D *1361:B1 5.04256e-05
6 *1213:D *1369:A2 6.23713e-05
7 *1213:D *1369:B1 3.6759e-05
8 *1213:D *1430:A 4.49939e-05
9 *1213:D *1431:A 1.17114e-05
10 *1213:D *1434:A 4.09029e-05
11 *1213:D *1436:B1 0
12 *1213:D *1493:A 0.000165016
13 *1213:D *1619:A 8.43862e-05
14 *1213:D *1660:A 7.96104e-06
15 *1213:D *1667:A 0.000181781
16 *1213:D *1668:addr[3] 0
17 *1213:D *288:8 8.40269e-05
18 *1213:D *291:16 0.000413349
19 *1213:D *307:22 0.000113373
20 *1213:D *350:12 0.000279243
21 *1213:D *378:42 0.00028347
22 *1213:D *452:22 6.98204e-05
23 *1213:D *456:29 0.000338212
24 *1213:D *456:53 0.000153597
25 *1213:D *532:70 0.000345353
26 *1213:D *574:92 1.02346e-05
27 *1243:C *599:DIODE 1.47347e-05
28 *1243:C *574:92 4.77719e-05
29 *179:42 *598:DIODE 0.000269916
30 *179:42 *599:DIODE 0.000135124
31 *179:42 *1154:A_N 2.8802e-05
32 *179:42 *1155:A1 0.000100197
33 *179:42 *1172:B1_N 4.20252e-05
34 *179:42 *1178:C 0
35 *179:42 *1181:A2 4.82919e-05
36 *179:42 *1182:B 4.13501e-05
37 *179:42 *1456:B 7.48954e-05
38 *179:42 *1456:C_N 4.99619e-05
39 *179:42 *1460:A1 3.99879e-05
40 *179:42 *452:51 0.0001305
41 *179:42 *455:18 1.52184e-05
42 *179:42 *532:122 4.00504e-05
43 *1156:A *179:42 9.80032e-06
44 *1156:B *179:42 7.72788e-05
45 *1175:B *179:42 0
46 *1183:A *179:42 2.16833e-05
47 *1183:B *179:42 0.000123225
48 *1185:A *179:42 0.000241483
49 *1187:A1 *179:42 1.12578e-05
50 *1187:B1 *179:42 1.37448e-05
51 *1204:A *1213:D 9.78429e-05
52 *1213:B *1213:D 1.03423e-05
53 *1243:B *1243:C 8.77516e-05
54 *1243:B *179:42 3.66286e-05
55 *1567:D *1213:D 1.26548e-05
56 *1568:D *1213:D 0.000116158
57 *1572:D *1213:D 0.000166271
58 *151:23 *179:42 5.5626e-05
59 *154:25 *179:42 1.38088e-05
60 *154:31 *179:42 3.53774e-05
61 *155:12 *179:42 0
62 *157:14 *179:42 9.32633e-05
63 *160:6 *179:42 0.000159059
*RES
1 *1212:X *179:42 37.92 
2 *179:42 *1243:C 2.395 
3 *179:42 *1213:D 38.7109 
*END

*D_NET *180 0.00104342
*CONN
*I *1221:B2 I *D sky130_fd_sc_hd__o221a_2
*I *1214:X O *D sky130_fd_sc_hd__and2b_2
*CAP
1 *1221:B2 0.000220424
2 *1214:X 0.000220424
3 *1221:B2 *1214:A_N 0.0001249
4 *1221:B2 *1221:B1 0.000303214
5 *1221:B2 *1555:CLK 0
6 *1171:B *1221:B2 0.000174453
*RES
1 *1214:X *1221:B2 12.015 
*END

*D_NET *181 0.00112854
*CONN
*I *1216:C1 I *D sky130_fd_sc_hd__o221a_2
*I *1215:X O *D sky130_fd_sc_hd__a211o_2
*CAP
1 *1216:C1 0.000296577
2 *1215:X 0.000296577
3 *1216:C1 *582:14 0.000341885
4 *1216:C1 *582:18 7.23602e-05
5 *1216:C1 *582:37 6.68849e-05
6 *1215:C1 *1216:C1 5.4256e-05
*RES
1 *1215:X *1216:C1 12.045 
*END

*D_NET *182 0.000425842
*CONN
*I *1217:C1 I *D sky130_fd_sc_hd__a221o_2
*I *1216:X O *D sky130_fd_sc_hd__o221a_2
*CAP
1 *1217:C1 0.000101394
2 *1216:X 0.000101394
3 *1217:C1 *426:70 0
4 *1217:C1 *577:61 5.19629e-05
5 *1217:C1 *583:27 2.97204e-05
6 *1216:A1 *1217:C1 9.30787e-05
7 *1216:B2 *1217:C1 4.82919e-05
*RES
1 *1216:X *1217:C1 9.285 
*END

*D_NET *183 0.000655467
*CONN
*I *1218:C1 I *D sky130_fd_sc_hd__o221a_2
*I *1217:X O *D sky130_fd_sc_hd__a221o_2
*CAP
1 *1218:C1 0.000184988
2 *1217:X 0.000184988
3 *1218:C1 *1524:B 3.72149e-05
4 *1218:C1 *1547:RESET_B 5.17273e-05
5 *1218:C1 *577:61 8.8266e-05
6 *1218:C1 *581:64 4.66108e-05
7 *1218:C1 *581:108 3.86439e-05
8 *1527:GATE *1218:C1 2.30292e-05
*RES
1 *1217:X *1218:C1 10.425 
*END

*D_NET *184 0.000652795
*CONN
*I *1220:C1 I *D sky130_fd_sc_hd__a221o_2
*I *1218:X O *D sky130_fd_sc_hd__o221a_2
*CAP
1 *1220:C1 0.000182378
2 *1218:X 0.000182378
3 *1220:C1 *246:10 8.40213e-05
4 *1218:B2 *1220:C1 0.000204018
*RES
1 *1218:X *1220:C1 6.77 
*END

*D_NET *185 0.00108611
*CONN
*I *1222:A2 I *D sky130_fd_sc_hd__a21oi_2
*I *1219:Y O *D sky130_fd_sc_hd__nand2b_2
*CAP
1 *1222:A2 0.000299971
2 *1219:Y 0.000299971
3 *1222:A2 *1171:A 3.6227e-05
4 *1222:A2 *1206:A 0
5 *1222:A2 *1207:A 0
6 *1222:A2 *1219:A_N 0.000237283
7 *1222:A2 *1219:B 3.78026e-05
8 *1222:A2 *1222:B1 0
9 *1222:A2 *472:27 1.31828e-05
10 *1222:A2 *577:61 4.89295e-05
11 *1222:A2 *586:64 0
12 *1222:A2 *586:68 0
13 *1222:A2 *587:57 0.000112743
*RES
1 *1219:Y *1222:A2 13.11 
*END

*D_NET *186 0.000744679
*CONN
*I *1221:C1 I *D sky130_fd_sc_hd__o221a_2
*I *1220:X O *D sky130_fd_sc_hd__a221o_2
*CAP
1 *1221:C1 0.000172084
2 *1220:X 0.000172084
3 *1221:C1 *537:160 0.000131766
4 *1221:C1 *583:76 0.00015896
5 *1221:C1 *585:47 0.000109786
*RES
1 *1220:X *1221:C1 10.32 
*END

*D_NET *187 0.00250481
*CONN
*I *1222:B1 I *D sky130_fd_sc_hd__a21oi_2
*I *1221:X O *D sky130_fd_sc_hd__o221a_2
*CAP
1 *1222:B1 0.000450139
2 *1221:X 0.000450139
3 *1222:B1 *1169:A 0.000124895
4 *1222:B1 *1207:A 9.04308e-05
5 *1222:B1 *1219:A_N 4.77757e-05
6 *1222:B1 *1219:B 0.000150154
7 *1222:B1 *472:27 2.74056e-05
8 *1222:B1 *577:61 0.000397386
9 *1222:B1 *579:52 0.000219092
10 *1222:B1 *580:47 0
11 *1169:B *1222:B1 5.30673e-05
12 *1209:A_N *1222:B1 0
13 *1222:A2 *1222:B1 0
14 *131:6 *1222:B1 0.000315527
15 *175:25 *1222:B1 0.000178797
*RES
1 *1221:X *1222:B1 19.83 
*END

*D_NET *188 0.00340142
*CONN
*I *1384:A0 I *D sky130_fd_sc_hd__mux2_1
*I *1241:A2 I *D sky130_fd_sc_hd__a21bo_2
*I *1224:B I *D sky130_fd_sc_hd__xor2_2
*I *1223:Y O *D sky130_fd_sc_hd__nand2_2
*CAP
1 *1384:A0 0
2 *1241:A2 6.35359e-05
3 *1224:B 0.000123368
4 *1223:Y 0.000101546
5 *188:18 0.000850598
6 *188:10 0.000765241
7 *1224:B *1248:A 2.23342e-05
8 *1224:B *205:12 4.36438e-05
9 *1224:B *350:12 0
10 *1224:B *378:42 0
11 *1224:B *537:56 1.18035e-05
12 *1241:A2 *1247:B 2.97561e-05
13 *1241:A2 *1248:A 0.000144235
14 *1241:A2 *212:10 3.11841e-05
15 *188:10 *1223:B 6.38275e-05
16 *188:10 *1384:S 8.11541e-05
17 *188:10 *461:28 8.41307e-05
18 *188:10 *533:46 8.77254e-05
19 *188:18 *1399:A 7.24406e-06
20 *188:18 *1401:B1 8.69971e-05
21 *188:18 *1441:A 1.75162e-05
22 *188:18 *310:12 1.12261e-05
23 *188:18 *332:34 3.61362e-05
24 *188:18 *350:12 0
25 *188:18 *531:12 0
26 *188:18 *533:46 0.000628892
27 *188:18 *537:56 0.000109325
*RES
1 *1223:Y *188:10 4.495 
2 *188:10 *188:18 4.54043 
3 *188:18 *1224:B 3.2003 
4 *188:18 *1241:A2 5.8625 
5 *188:10 *1384:A0 1.6 
*END

*D_NET *189 0.00394177
*CONN
*I *1240:B I *D sky130_fd_sc_hd__nand3_2
*I *1445:B1 I *D sky130_fd_sc_hd__a21o_2
*I *1227:A I *D sky130_fd_sc_hd__and2_2
*I *1224:X O *D sky130_fd_sc_hd__xor2_2
*CAP
1 *1240:B 5.44414e-05
2 *1445:B1 0.000180319
3 *1227:A 0.000307227
4 *1224:X 4.37282e-05
5 *189:16 0.000763409
6 *189:8 0.000374032
7 *1227:A *1226:B 1.52184e-05
8 *1227:A *1227:B 0.000154718
9 *1227:A *1446:B2 4.26938e-06
10 *1227:A *1451:A2 8.8266e-05
11 *1227:A *1486:A1 0.000198615
12 *1227:A *191:12 4.98033e-05
13 *1227:A *192:14 4.58166e-05
14 *1227:A *580:72 1.61831e-05
15 *1240:B *1248:A 5.02217e-05
16 *1240:B *1370:A2 0
17 *1240:B *205:12 0.000116165
18 *1445:B1 *1226:B 6.28843e-05
19 *1445:B1 *1412:A 8.54361e-05
20 *1445:B1 *1423:B1 0.000156483
21 *1445:B1 *1445:A2 0.000117523
22 *1445:B1 *332:34 0.000138961
23 *1445:B1 *579:80 0
24 *189:8 *190:12 1.33293e-05
25 *189:16 *1226:B 8.49205e-05
26 *189:16 *1486:A0 0.000461935
27 *189:16 *1486:A1 2.05056e-05
28 *189:16 *1668:addr[0] 0.000142669
29 *189:16 *190:12 3.6153e-05
30 *189:16 *580:72 4.93691e-05
31 *189:16 *580:89 1.77595e-05
32 *1581:D *1445:B1 9.14049e-05
*RES
1 *1224:X *189:8 2.41 
2 *189:8 *189:16 8.78 
3 *189:16 *1227:A 10.425 
4 *189:16 *1445:B1 9.315 
5 *189:8 *1240:B 6.98 
*END

*D_NET *190 0.00449697
*CONN
*I *1240:C I *D sky130_fd_sc_hd__nand3_2
*I *1445:A2 I *D sky130_fd_sc_hd__a21o_2
*I *1226:B I *D sky130_fd_sc_hd__xor2_2
*I *1225:Y O *D sky130_fd_sc_hd__nand2_2
*CAP
1 *1240:C 0.000115896
2 *1445:A2 0.000130387
3 *1226:B 0.000160503
4 *1225:Y 0.00023923
5 *190:16 0.000513749
6 *190:12 0.000577984
7 *1226:B *1446:B2 0.000132842
8 *1226:B *1486:A1 4.82919e-05
9 *1226:B *191:12 4.82863e-05
10 *1226:B *579:80 0.000120741
11 *1226:B *580:72 0.000165241
12 *1240:C *332:34 4.78585e-05
13 *1240:C *579:105 4.66108e-05
14 *1445:A2 *1423:B1 0.000156483
15 *1445:A2 *1446:B2 0.000373945
16 *1445:A2 *433:160 4.66108e-05
17 *1445:A2 *462:16 4.66108e-05
18 *190:12 *1248:B 2.82575e-05
19 *190:12 *1486:A0 9.37731e-05
20 *190:12 *533:46 0.00027042
21 *190:12 *579:105 0.000183745
22 *190:12 *580:89 8.53113e-06
23 *190:16 *570:78 8.23457e-05
24 *190:16 *579:84 0.000462829
25 *190:16 *579:105 3.57349e-05
26 *1227:A *1226:B 1.52184e-05
27 *1445:B1 *1226:B 6.28843e-05
28 *1445:B1 *1445:A2 0.000117523
29 *1581:D *1226:B 3.00381e-05
30 *189:8 *190:12 1.33293e-05
31 *189:16 *1226:B 8.49205e-05
32 *189:16 *190:12 3.6153e-05
*RES
1 *1225:Y *190:12 11.3 
2 *190:12 *190:16 6.59 
3 *190:16 *1226:B 7.1375 
4 *190:16 *1445:A2 8.49 
5 *190:12 *1240:C 3.445 
*END

*D_NET *191 0.00090185
*CONN
*I *1446:C1 I *D sky130_fd_sc_hd__a221oi_2
*I *1227:B I *D sky130_fd_sc_hd__and2_2
*I *1226:X O *D sky130_fd_sc_hd__xor2_2
*CAP
1 *1446:C1 0
2 *1227:B 5.50154e-05
3 *1226:X 0.000130772
4 *191:12 0.000185787
5 *1227:B *1405:C1 1.60203e-05
6 *1227:B *192:14 0.000163199
7 *1227:B *580:72 4.99619e-05
8 *191:12 *580:72 4.82863e-05
9 *1226:B *191:12 4.82863e-05
10 *1227:A *1227:B 0.000154718
11 *1227:A *191:12 4.98033e-05
*RES
1 *1226:X *191:12 7.94 
2 *191:12 *1227:B 4.135 
3 *191:12 *1446:C1 1.6 
*END

*D_NET *192 0.00397371
*CONN
*I *1228:A I *D sky130_fd_sc_hd__inv_2
*I *1242:A1 I *D sky130_fd_sc_hd__a31o_2
*I *1239:A I *D sky130_fd_sc_hd__and3_2
*I *1227:X O *D sky130_fd_sc_hd__and2_2
*CAP
1 *1228:A 0.000368781
2 *1242:A1 0
3 *1239:A 0.000307731
4 *1227:X 0.000245812
5 *192:27 0.000368781
6 *192:14 0.000553543
7 *1228:A *1553:RESET_B 0.000139002
8 *1228:A *531:49 4.70386e-05
9 *1239:A *1239:C 4.82919e-05
10 *1239:A *1242:B1 1.39456e-05
11 *1239:A *1248:B 6.95177e-05
12 *1239:A *1553:RESET_B 0
13 *1239:A *1668:addr[0] 8.73954e-05
14 *1239:A *194:10 0
15 *1239:A *197:20 0.000274758
16 *192:14 *1242:B1 3.32976e-05
17 *192:14 *1248:B 0.000124908
18 *192:14 *1405:C1 0.000756559
19 *192:14 *1446:A1 8.65905e-05
20 *192:14 *1446:B1 0.000190564
21 *192:14 *1451:A2 1.80164e-05
22 *192:14 *579:105 2.16306e-05
23 *192:14 *580:89 8.53113e-06
24 *1227:A *192:14 4.58166e-05
25 *1227:B *192:14 0.000163199
*RES
1 *1227:X *192:14 12.705 
2 *192:14 *1239:A 9.285 
3 *192:14 *192:27 2 
4 *192:27 *1242:A1 1.6 
5 *192:27 *1228:A 6.115 
*END

*D_NET *193 0.000316419
*CONN
*I *1247:A I *D sky130_fd_sc_hd__or4_2
*I *1228:Y O *D sky130_fd_sc_hd__inv_2
*CAP
1 *1247:A 4.88911e-05
2 *1228:Y 4.88911e-05
3 *1247:A *1247:C 0.000108706
4 *1247:A *531:49 0.000109931
*RES
1 *1228:Y *1247:A 8.58 
*END

*D_NET *194 0.00408985
*CONN
*I *1390:A I *D sky130_fd_sc_hd__and2_2
*I *1238:A2 I *D sky130_fd_sc_hd__a221o_2
*I *1230:B I *D sky130_fd_sc_hd__or2_2
*I *1237:B I *D sky130_fd_sc_hd__nand2_2
*I *1229:Y O *D sky130_fd_sc_hd__nand2_2
*CAP
1 *1390:A 2.3011e-05
2 *1238:A2 0
3 *1230:B 0
4 *1237:B 0.000158221
5 *1229:Y 0.000215169
6 *194:34 0.000731365
7 *194:22 0.00087712
8 *194:10 0.000542156
9 *1237:B *195:10 7.37556e-05
10 *1237:B *573:52 2.99518e-06
11 *1237:B *578:50 2.11061e-05
12 *1390:A *196:18 4.43871e-06
13 *1390:A *531:41 2.09166e-05
14 *194:10 *1553:RESET_B 2.29301e-05
15 *194:10 *531:41 7.81687e-05
16 *194:22 *1238:B2 0
17 *194:22 *196:18 0.00012645
18 *194:22 *201:10 0.000347809
19 *194:22 *203:8 0
20 *194:22 *535:78 5.8023e-05
21 *194:22 *578:70 0.000237829
22 *194:34 *1238:B1 5.53249e-06
23 *194:34 *195:10 4.57464e-06
24 *194:34 *201:10 1.60083e-05
25 *194:34 *535:45 0
26 *194:34 *578:61 0.0004565
27 *194:34 *578:70 6.57684e-05
28 *1201:A *1237:B 0
29 *1201:C *1237:B 0
30 *1239:A *194:10 0
*RES
1 *1229:Y *194:10 6.96 
2 *194:10 *194:22 9.6425 
3 *194:22 *194:34 12.1675 
4 *194:34 *1237:B 8.45 
5 *194:34 *1230:B 1.6 
6 *194:22 *1238:A2 1.6 
7 *194:10 *1390:A 4.215 
*END

*D_NET *195 0.00438811
*CONN
*I *1239:B I *D sky130_fd_sc_hd__and3_2
*I *1446:A1 I *D sky130_fd_sc_hd__a221oi_2
*I *1242:A2 I *D sky130_fd_sc_hd__a31o_2
*I *1245:A I *D sky130_fd_sc_hd__and2_2
*I *1230:X O *D sky130_fd_sc_hd__or2_2
*CAP
1 *1239:B 0
2 *1446:A1 0.000105422
3 *1242:A2 0.000122633
4 *1245:A 3.60999e-05
5 *1230:X 0.000228305
6 *195:31 0.00029673
7 *195:27 0.000659929
8 *195:10 0.000855659
9 *1242:A2 *1242:A3 8.49205e-05
10 *1242:A2 *1248:B 1.19928e-05
11 *1242:A2 *1451:D1 1.19928e-05
12 *1245:A *1245:B 4.82863e-05
13 *1245:A *1246:A 1.37328e-05
14 *1245:A *198:14 8.89259e-05
15 *1245:A *210:8 2.0514e-05
16 *1446:A1 *1446:A2 0.000106338
17 *1446:A1 *1446:B1 4.66742e-05
18 *1446:A1 *1446:B2 0
19 *1446:A1 *1486:A1 0
20 *1446:A1 *1668:addr[0] 1.8865e-05
21 *1446:A1 *533:91 7.47215e-05
22 *195:10 *1245:B 5.42624e-05
23 *195:10 *578:50 0.000134229
24 *195:10 *578:61 1.56428e-05
25 *195:27 *1234:B 0.000198939
26 *195:27 *1245:B 1.52184e-05
27 *195:27 *1247:D 0.000426263
28 *195:27 *569:40 0.000122337
29 *195:31 *1242:A3 0.000153281
30 *195:31 *1446:A2 0.000174446
31 *195:31 *1668:addr[0] 5.69248e-06
32 *1201:A *195:10 0
33 *1237:B *195:10 7.37556e-05
34 *172:22 *195:10 4.75576e-05
35 *172:22 *195:27 4.35754e-05
36 *192:14 *1446:A1 8.65905e-05
37 *194:34 *195:10 4.57464e-06
*RES
1 *1230:X *195:10 7.56 
2 *195:10 *1245:A 4.755 
3 *195:10 *195:27 10.475 
4 *195:27 *195:31 4.145 
5 *195:31 *1242:A2 5.085 
6 *195:31 *1446:A1 6.39 
7 *195:27 *1239:B 1.6 
*END

*D_NET *196 0.00236374
*CONN
*I *1233:B I *D sky130_fd_sc_hd__or2_2
*I *1232:B I *D sky130_fd_sc_hd__and2_2
*I *1231:Y O *D sky130_fd_sc_hd__nand2_2
*CAP
1 *1233:B 0.000444983
2 *1232:B 0
3 *1231:Y 0.000220742
4 *196:18 0.000665725
5 *1233:B *1390:B 0
6 *1233:B *1451:C1 0.000238919
7 *1233:B *577:85 8.49005e-05
8 *1233:B *577:97 0.000287858
9 *1233:B *577:120 4.46731e-05
10 *196:18 *1231:A 4.99619e-05
11 *196:18 *197:12 2.49909e-05
12 *196:18 *201:10 4.82919e-05
13 *196:18 *531:41 0
14 *196:18 *577:120 0.000121811
15 *1390:A *196:18 4.43871e-06
16 *194:22 *196:18 0.00012645
*RES
1 *1231:Y *196:18 9.89 
2 *196:18 *1232:B 1.6 
3 *196:18 *1233:B 9.79 
*END

*D_NET *197 0.00431164
*CONN
*I *1244:A I *D sky130_fd_sc_hd__or3b_2
*I *1238:C1 I *D sky130_fd_sc_hd__a221o_2
*I *1234:A_N I *D sky130_fd_sc_hd__and2b_2
*I *1232:X O *D sky130_fd_sc_hd__and2_2
*CAP
1 *1244:A 0
2 *1238:C1 0.000234538
3 *1234:A_N 9.73191e-06
4 *1232:X 0.000436764
5 *197:20 0.000643978
6 *197:12 0.000836471
7 *1234:A_N *1247:D 4.82863e-05
8 *1234:A_N *569:40 4.82863e-05
9 *1238:C1 *1234:B 8.09021e-06
10 *1238:C1 *1238:B1 7.60069e-05
11 *1238:C1 *1451:C1 0
12 *1238:C1 *198:8 2.96232e-05
13 *1238:C1 *199:10 3.76964e-05
14 *1238:C1 *569:40 1.71013e-05
15 *197:12 *1247:C 0
16 *197:12 *1390:B 0.000353831
17 *197:12 *309:10 0.000111036
18 *197:12 *531:41 0
19 *197:12 *577:120 1.82569e-05
20 *197:20 *1247:C 8.65961e-05
21 *197:20 *1247:D 0.000709144
22 *197:20 *569:40 0.000212371
23 *1239:A *197:20 0.000274758
24 *1244:C_N *197:20 9.4087e-05
25 *196:18 *197:12 2.49909e-05
*RES
1 *1232:X *197:12 11.57 
2 *197:12 *197:20 10.59 
3 *197:20 *1234:A_N 2.05 
4 *197:20 *1238:C1 9.785 
5 *197:12 *1244:A 1.6 
*END

*D_NET *198 0.00249282
*CONN
*I *1234:B I *D sky130_fd_sc_hd__and2b_2
*I *1246:A I *D sky130_fd_sc_hd__nand2_2
*I *1447:A I *D sky130_fd_sc_hd__or2_2
*I *1233:X O *D sky130_fd_sc_hd__or2_2
*CAP
1 *1234:B 0.000100959
2 *1246:A 1.30122e-05
3 *1447:A 6.55097e-05
4 *1233:X 7.17902e-05
5 *198:14 0.000502532
6 *198:8 0.000596759
7 *1234:B *1245:B 0
8 *1234:B *1247:D 0.000198939
9 *1234:B *569:40 7.23658e-05
10 *1246:A *210:8 5.4155e-06
11 *1447:A *1447:B 0.000164874
12 *1447:A *210:8 4.60584e-05
13 *198:8 *1245:B 0
14 *198:14 *1245:B 4.21973e-05
15 *198:14 *1247:D 0.000106035
16 *198:14 *210:8 4.21666e-05
17 *1201:A *1447:A 0.000124895
18 *1238:C1 *1234:B 8.09021e-06
19 *1238:C1 *198:8 2.96232e-05
20 *1245:A *1246:A 1.37328e-05
21 *1245:A *198:14 8.89259e-05
22 *195:27 *1234:B 0.000198939
*RES
1 *1233:X *198:8 4.725 
2 *198:8 *198:14 7.64 
3 *198:14 *1447:A 3.775 
4 *198:14 *1246:A 1.96 
5 *198:8 *1234:B 6.555 
*END

*D_NET *199 0.000813549
*CONN
*I *1450:A I *D sky130_fd_sc_hd__xnor2_2
*I *1238:B1 I *D sky130_fd_sc_hd__a221o_2
*I *1234:X O *D sky130_fd_sc_hd__and2b_2
*CAP
1 *1450:A 0
2 *1238:B1 0.000108641
3 *1234:X 0.000113905
4 *199:10 0.000222546
5 *1238:B1 *1450:B 0.000134262
6 *1238:B1 *203:8 0
7 *199:10 *1451:C1 6.83488e-05
8 *199:10 *203:8 0
9 *199:10 *569:40 4.66108e-05
10 *1238:C1 *1238:B1 7.60069e-05
11 *1238:C1 *199:10 3.76964e-05
12 *194:34 *1238:B1 5.53249e-06
*RES
1 *1234:X *199:10 5.43 
2 *199:10 *1238:B1 6 
3 *199:10 *1450:A 3.6 
*END

*D_NET *200 0.000394769
*CONN
*I *1236:B1 I *D sky130_fd_sc_hd__a21o_2
*I *1235:Y O *D sky130_fd_sc_hd__a21boi_2
*CAP
1 *1236:B1 0.000176587
2 *1235:Y 0.000176587
3 *1236:B1 *1388:C 0
4 *1236:B1 *457:45 4.15942e-05
5 *1236:B1 *574:54 0
6 *1196:A *1236:B1 0
7 *1196:B *1236:B1 0
*RES
1 *1235:Y *1236:B1 9.9 
*END

*D_NET *201 0.00437668
*CONN
*I *1450:B I *D sky130_fd_sc_hd__xnor2_2
*I *1238:B2 I *D sky130_fd_sc_hd__a221o_2
*I *1236:X O *D sky130_fd_sc_hd__a21o_2
*CAP
1 *1450:B 6.9508e-05
2 *1238:B2 9.65287e-05
3 *1236:X 0.00113056
4 *201:10 0.0012966
5 *1238:B2 *578:61 8.59173e-05
6 *1238:B2 *578:70 4.9253e-06
7 *1450:B *203:8 4.19603e-05
8 *1450:B *535:78 0
9 *201:10 *1231:A 8.95932e-05
10 *201:10 *1392:B 4.99619e-05
11 *201:10 *1393:A2 0.000119242
12 *201:10 *1394:D_N 0.000199833
13 *201:10 *315:8 0.000260598
14 *201:10 *319:18 4.99619e-05
15 *201:10 *531:28 0.000105775
16 *201:10 *577:120 0.000112631
17 *201:10 *578:70 0.000116709
18 *1238:B1 *1450:B 0.000134262
19 *194:22 *1238:B2 0
20 *194:22 *201:10 0.000347809
21 *194:34 *201:10 1.60083e-05
22 *196:18 *201:10 4.82919e-05
*RES
1 *1236:X *201:10 21.49 
2 *201:10 *1238:B2 3.45625 
3 *201:10 *1450:B 7.235 
*END

*D_NET *202 0.000530803
*CONN
*I *1245:B I *D sky130_fd_sc_hd__and2_2
*I *1237:Y O *D sky130_fd_sc_hd__nand2_2
*CAP
1 *1245:B 0.000132315
2 *1237:Y 0.000132315
3 *1245:B *1247:D 2.05056e-05
4 *1245:B *210:8 8.57024e-05
5 *1234:B *1245:B 0
6 *1245:A *1245:B 4.82863e-05
7 *195:10 *1245:B 5.42624e-05
8 *195:27 *1245:B 1.52184e-05
9 *198:8 *1245:B 0
10 *198:14 *1245:B 4.21973e-05
*RES
1 *1237:Y *1245:B 9.975 
*END

*D_NET *203 0.00222668
*CONN
*I *1242:A3 I *D sky130_fd_sc_hd__a31o_2
*I *1446:A2 I *D sky130_fd_sc_hd__a221oi_2
*I *1239:C I *D sky130_fd_sc_hd__and3_2
*I *1238:X O *D sky130_fd_sc_hd__a221o_2
*CAP
1 *1242:A3 0.000188018
2 *1446:A2 0.000145103
3 *1239:C 3.38648e-05
4 *1238:X 0.000183517
5 *203:19 0.00039004
6 *203:8 0.0002743
7 *1242:A3 *1248:B 4.80285e-05
8 *1242:A3 *1451:A1 9.21068e-05
9 *1242:A3 *1451:D1 5.83121e-06
10 *1242:A3 *1668:addr[0] 4.29704e-05
11 *1446:A2 *1451:A2 0.000111905
12 *1446:A2 *1451:C1 4.32606e-05
13 *1446:A2 *1486:A1 0
14 *1446:A2 *569:40 4.36573e-06
15 *203:8 *1451:C1 2.09578e-05
16 *203:8 *535:78 0
17 *203:19 *1451:C1 4.24292e-06
18 *203:19 *1668:addr[0] 0
19 *203:19 *569:40 2.89259e-05
20 *1238:B1 *203:8 0
21 *1239:A *1239:C 4.82919e-05
22 *1242:A2 *1242:A3 8.49205e-05
23 *1446:A1 *1446:A2 0.000106338
24 *1450:B *203:8 4.19603e-05
25 *194:22 *203:8 0
26 *195:31 *1242:A3 0.000153281
27 *195:31 *1446:A2 0.000174446
28 *199:10 *203:8 0
*RES
1 *1238:X *203:8 6.51 
2 *203:8 *1239:C 4.05 
3 *203:8 *203:19 0.9975 
4 *203:19 *1446:A2 7.4025 
5 *203:19 *1242:A3 7.4625 
*END

*D_NET *204 0.000456239
*CONN
*I *1451:A1 I *D sky130_fd_sc_hd__o2111a_2
*I *1239:X O *D sky130_fd_sc_hd__and3_2
*CAP
1 *1451:A1 5.67743e-05
2 *1239:X 5.67743e-05
3 *1451:A1 *1248:B 3.57349e-05
4 *1451:A1 *1451:D1 4.35034e-05
5 *1451:A1 *1553:RESET_B 7.92383e-05
6 *1451:A1 *1668:addr[0] 9.21068e-05
7 *1242:A3 *1451:A1 9.21068e-05
*RES
1 *1239:X *1451:A1 9.09 
*END

*D_NET *205 0.00216404
*CONN
*I *1241:B1_N I *D sky130_fd_sc_hd__a21bo_2
*I *1446:B1 I *D sky130_fd_sc_hd__a221oi_2
*I *1240:Y O *D sky130_fd_sc_hd__nand3_2
*CAP
1 *1241:B1_N 0
2 *1446:B1 0.000202989
3 *1240:Y 0.000130976
4 *205:12 0.000333965
5 *1446:B1 *1405:C1 1.46828e-05
6 *1446:B1 *1451:A2 0.000163199
7 *1446:B1 *533:91 0.000228907
8 *1446:B1 *580:89 8.69789e-05
9 *205:12 *1248:A 2.39955e-05
10 *205:12 *1370:A2 0
11 *205:12 *1486:A0 9.3062e-06
12 *205:12 *533:46 0.000136884
13 *205:12 *533:91 3.70277e-05
14 *205:12 *579:105 0.00035186
15 *205:12 *580:89 4.62224e-05
16 *1224:B *205:12 4.36438e-05
17 *1240:B *205:12 0.000116165
18 *1446:A1 *1446:B1 4.66742e-05
19 *192:14 *1446:B1 0.000190564
*RES
1 *1240:Y *205:12 10.4862 
2 *205:12 *1446:B1 7.36375 
3 *205:12 *1241:B1_N 1.6 
*END

*D_NET *206 0.000207886
*CONN
*I *1242:B1 I *D sky130_fd_sc_hd__a31o_2
*I *1241:X O *D sky130_fd_sc_hd__a21bo_2
*CAP
1 *1242:B1 6.20542e-05
2 *1241:X 6.20542e-05
3 *1242:B1 *1229:B 2.24723e-05
4 *1242:B1 *1553:RESET_B 4.55864e-06
5 *1242:B1 *579:105 9.50342e-06
6 *1239:A *1242:B1 1.39456e-05
7 *192:14 *1242:B1 3.32976e-05
*RES
1 *1241:X *1242:B1 8.325 
*END

*D_NET *207 0.00312625
*CONN
*I *1248:B I *D sky130_fd_sc_hd__and3_2
*I *1451:D1 I *D sky130_fd_sc_hd__o2111a_2
*I *1242:X O *D sky130_fd_sc_hd__a31o_2
*CAP
1 *1248:B 0.000641823
2 *1451:D1 0.000122081
3 *1242:X 0
4 *207:4 0.000763904
5 *1248:B *1446:B2 0
6 *1248:B *1486:A0 9.60047e-05
7 *1248:B *1553:RESET_B 4.01811e-05
8 *1248:B *1668:addr[0] 0.000336513
9 *1248:B *332:34 0.000372901
10 *1248:B *570:78 0
11 *1248:B *580:89 6.85608e-05
12 *1451:D1 *1451:B1 0.000101825
13 *1451:D1 *1553:RESET_B 0.000202686
14 *1239:A *1248:B 6.95177e-05
15 *1242:A2 *1248:B 1.19928e-05
16 *1242:A2 *1451:D1 1.19928e-05
17 *1242:A3 *1248:B 4.80285e-05
18 *1242:A3 *1451:D1 5.83121e-06
19 *1451:A1 *1248:B 3.57349e-05
20 *1451:A1 *1451:D1 4.35034e-05
21 *190:12 *1248:B 2.82575e-05
22 *192:14 *1248:B 0.000124908
*RES
1 *1242:X *207:4 1.6 
2 *207:4 *1451:D1 4.945 
3 *207:4 *1248:B 17.975 
*END

*D_NET *208 0.00700397
*CONN
*I *1400:C I *D sky130_fd_sc_hd__or4_2
*I *1247:B I *D sky130_fd_sc_hd__or4_2
*I *1243:Y O *D sky130_fd_sc_hd__nand3_2
*CAP
1 *1400:C 0.000115848
2 *1247:B 0.000495736
3 *1243:Y 0.00153531
4 *208:8 0.00214689
5 *1247:B *1247:C 2.92496e-05
6 *1247:B *1247:D 9.50342e-06
7 *1247:B *1248:A 1.23244e-05
8 *1247:B *1382:B 6.59926e-05
9 *1247:B *212:10 9.50342e-06
10 *1247:B *309:10 6.15288e-05
11 *1247:B *309:43 0.000110618
12 *1247:B *531:49 1.95461e-05
13 *1247:B *569:40 1.03323e-05
14 *1247:B *579:105 0.000231041
15 *1247:B *580:97 0.000266362
16 *1400:C *1382:B 1.39525e-05
17 *1400:C *1397:B1 2.95721e-05
18 *208:8 *1189:C 0.000465431
19 *208:8 *1381:A1 0.000112507
20 *208:8 *1396:B1 0.00030615
21 *208:8 *1397:B1 0.000304847
22 *208:8 *1398:A2 6.91157e-06
23 *208:8 *1398:B1 6.91157e-06
24 *208:8 *1668:addr[3] 9.27255e-06
25 *208:8 *308:16 3.31413e-05
26 *208:8 *535:18 0.000152804
27 *208:8 *569:40 8.73389e-06
28 *208:8 *583:76 3.52139e-06
29 *1190:B *208:8 6.20063e-05
30 *1213:B *208:8 2.75145e-05
31 *1241:A2 *1247:B 2.97561e-05
32 *1243:B *208:8 3.21081e-06
33 *1244:C_N *1247:B 8.94249e-05
34 *1244:C_N *1400:C 0.000111459
35 *1400:A *1400:C 6.14983e-05
36 *154:41 *208:8 2.16917e-05
37 *163:33 *1400:C 2.38663e-05
*RES
1 *1243:Y *208:8 21.385 
2 *208:8 *1247:B 20.445 
3 *208:8 *1400:C 8.255 
*END

*D_NET *209 0.00105495
*CONN
*I *1247:C I *D sky130_fd_sc_hd__or4_2
*I *1244:X O *D sky130_fd_sc_hd__or3b_2
*CAP
1 *1247:C 0.000317261
2 *1244:X 0.000317261
3 *1247:C *1247:D 0.000144093
4 *1247:C *309:10 0
5 *1247:C *531:41 2.0967e-05
6 *1247:C *531:49 3.08152e-05
7 *1247:A *1247:C 0.000108706
8 *1247:B *1247:C 2.92496e-05
9 *197:12 *1247:C 0
10 *197:20 *1247:C 8.65961e-05
*RES
1 *1244:X *1247:C 12.69 
*END

*D_NET *210 0.00107451
*CONN
*I *1246:B I *D sky130_fd_sc_hd__nand2_2
*I *1447:B I *D sky130_fd_sc_hd__or2_2
*I *1245:X O *D sky130_fd_sc_hd__and2_2
*CAP
1 *1246:B 0
2 *1447:B 6.6274e-05
3 *1245:X 7.63738e-05
4 *210:8 0.000142648
5 *1447:B *1449:C 4.85494e-05
6 *1447:B *579:52 4.82863e-05
7 *210:8 *1247:D 0.000312964
8 *1201:A *1447:B 1.46828e-05
9 *1245:A *210:8 2.0514e-05
10 *1245:B *210:8 8.57024e-05
11 *1246:A *210:8 5.4155e-06
12 *1447:A *1447:B 0.000164874
13 *1447:A *210:8 4.60584e-05
14 *198:14 *210:8 4.21666e-05
*RES
1 *1245:X *210:8 4.825 
2 *210:8 *1447:B 3.775 
3 *210:8 *1246:B 1.6 
*END

*D_NET *211 0.00426853
*CONN
*I *1247:D I *D sky130_fd_sc_hd__or4_2
*I *1449:A I *D sky130_fd_sc_hd__and4_2
*I *1246:Y O *D sky130_fd_sc_hd__nand2_2
*CAP
1 *1247:D 0.000533707
2 *1449:A 8.31905e-05
3 *1246:Y 0
4 *211:4 0.000616898
5 *1247:D *1248:A 2.00272e-05
6 *1247:D *1449:C 0.0001249
7 *1247:D *1553:RESET_B 3.41554e-05
8 *1247:D *531:41 0.000175937
9 *1247:D *569:40 0.000666383
10 *1449:A *1449:C 2.88785e-05
11 *1449:A *1553:RESET_B 8.7152e-06
12 *1449:A *579:67 0
13 *1234:A_N *1247:D 4.82863e-05
14 *1234:B *1247:D 0.000198939
15 *1245:B *1247:D 2.05056e-05
16 *1247:B *1247:D 9.50342e-06
17 *1247:C *1247:D 0.000144093
18 *172:22 *1449:A 0
19 *195:27 *1247:D 0.000426263
20 *197:20 *1247:D 0.000709144
21 *198:14 *1247:D 0.000106035
22 *210:8 *1247:D 0.000312964
*RES
1 *1246:Y *211:4 1.6 
2 *211:4 *1449:A 6.98 
3 *211:4 *1247:D 24.335 
*END

*D_NET *212 0.00143012
*CONN
*I *1370:A2 I *D sky130_fd_sc_hd__o21a_2
*I *1248:C I *D sky130_fd_sc_hd__and3_2
*I *1247:X O *D sky130_fd_sc_hd__or4_2
*CAP
1 *1370:A2 0.000137619
2 *1248:C 0
3 *1247:X 0.000210815
4 *212:10 0.000348435
5 *1370:A2 *1153:A 0.000124895
6 *1370:A2 *1225:B 9.9468e-05
7 *1370:A2 *1248:A 0
8 *1370:A2 *1486:A0 0
9 *1370:A2 *213:8 3.5425e-05
10 *1370:A2 *300:22 0.000124895
11 *212:10 *1225:B 0.000120186
12 *212:10 *1248:A 0
13 *212:10 *1405:C1 0.000124007
14 *212:10 *531:49 6.36917e-05
15 *1240:B *1370:A2 0
16 *1241:A2 *212:10 3.11841e-05
17 *1247:B *212:10 9.50342e-06
18 *205:12 *1370:A2 0
*RES
1 *1247:X *212:10 7.65 
2 *212:10 *1248:C 3.6 
3 *212:10 *1370:A2 7.14 
*END

*D_NET *213 0.00376816
*CONN
*I *1625:A I *D sky130_fd_sc_hd__clkdlybuf4s25_1
*I *1624:A I *D sky130_fd_sc_hd__clkdlybuf4s25_1
*I *1248:X O *D sky130_fd_sc_hd__and3_2
*CAP
1 *1625:A 0.000129907
2 *1624:A 0.000557791
3 *1248:X 0.000436416
4 *213:8 0.00112411
5 *1624:A *1409:A 9.58678e-06
6 *1624:A *1409:C_N 0
7 *1624:A *1429:A 6.52967e-05
8 *1624:A *440:16 0
9 *1624:A *585:108 0
10 *1625:A *1256:A 0.000217605
11 *1625:A *1256:B 1.05827e-05
12 *1625:A *1605:A 5.06382e-06
13 *1625:A *437:14 1.98158e-05
14 *1625:A *438:31 0.00016551
15 *1625:A *438:54 0.000207454
16 *1625:A *548:10 1.6044e-05
17 *1625:A *548:24 8.88799e-05
18 *213:8 *1213:A_N 4.77701e-05
19 *213:8 *1225:B 1.07797e-05
20 *213:8 *1256:A 0.000144251
21 *213:8 *1256:B 0.000214153
22 *213:8 *1257:B 3.89245e-05
23 *213:8 *1370:A1 0
24 *213:8 *1370:B1 0
25 *213:8 *1382:B 0
26 *213:8 *1605:A 2.97291e-05
27 *213:8 *300:22 0
28 *213:8 *309:43 0
29 *213:8 *332:34 2.95708e-05
30 *213:8 *462:27 0
31 *213:8 *531:66 8.7152e-06
32 *1370:A2 *213:8 3.5425e-05
33 *134:93 *1624:A 0.000154779
*RES
1 *1248:X *213:8 11.7375 
2 *213:8 *1624:A 5.97757 
3 *213:8 *1625:A 8.2275 
*END

*D_NET *214 0.000938349
*CONN
*I *1251:B I *D sky130_fd_sc_hd__and3_2
*I *1249:Y O *D sky130_fd_sc_hd__o21ai_2
*CAP
1 *1251:B 0.000190472
2 *1249:Y 0.000190472
3 *1251:B *1406:S0 0.000160641
4 *1251:B *338:10 0.000153499
5 *1251:B *586:147 3.31204e-05
6 *172:22 *1251:B 0.000210144
*RES
1 *1249:Y *1251:B 11.85 
*END

*D_NET *215 0.00137712
*CONN
*I *1251:C I *D sky130_fd_sc_hd__and3_2
*I *1250:X O *D sky130_fd_sc_hd__or3_2
*CAP
1 *1251:C 0.000385026
2 *1250:X 0.000385026
3 *1251:C *1249:A1 9.02924e-05
4 *1251:C *1250:B 4.5783e-05
5 *1251:C *1406:A2 0.000107814
6 *1251:C *1406:A3 0
7 *1251:C *1407:B 0.000201503
8 *1251:C *1412:A 0
9 *1251:C *339:20 0
10 *1251:C *441:10 3.67779e-05
11 *1251:C *586:147 0
12 *1530:D *1251:C 0.000124895
*RES
1 *1250:X *1251:C 15 
*END

*D_NET *216 0.00136645
*CONN
*I *1254:B I *D sky130_fd_sc_hd__and3_2
*I *1252:Y O *D sky130_fd_sc_hd__o21ai_2
*CAP
1 *1254:B 0.000387123
2 *1252:Y 0.000387123
3 *1254:B *1252:A1 4.01687e-05
4 *1254:B *1252:B1 0.00016063
5 *1254:B *1254:A 7.23533e-05
6 *1254:B *1370:B1 0
7 *1254:B *1530:CLK 8.09021e-06
8 *1254:B *439:28 0.000234131
9 *1254:B *440:8 4.99619e-05
10 *1254:B *440:42 2.68721e-05
*RES
1 *1252:Y *1254:B 14.16 
*END

*D_NET *217 0.00147359
*CONN
*I *1254:C I *D sky130_fd_sc_hd__and3_2
*I *1253:X O *D sky130_fd_sc_hd__or3_2
*CAP
1 *1254:C 0.000397633
2 *1253:X 0.000397633
3 *1254:C *1253:B 0.000190455
4 *1254:C *1429:A 0
5 *1254:C *1530:CLK 7.18805e-05
6 *1254:C *434:46 0.000249887
7 *1254:C *436:50 0.000113797
8 *1531:D *1254:C 5.23024e-05
*RES
1 *1253:X *1254:C 15.33 
*END

*D_NET *218 0.00112057
*CONN
*I *1257:B I *D sky130_fd_sc_hd__and3_2
*I *1255:Y O *D sky130_fd_sc_hd__o21ai_2
*CAP
1 *1257:B 0.000246114
2 *1255:Y 0.000246114
3 *1257:B *1255:B1 8.76033e-05
4 *1257:B *1256:A 0.000291389
5 *1257:B *1257:C 1.39431e-05
6 *1257:B *1382:B 0
7 *1257:B *439:16 0.000196481
8 *213:8 *1257:B 3.89245e-05
*RES
1 *1255:Y *1257:B 12.87 
*END

*D_NET *219 0.000321362
*CONN
*I *1257:C I *D sky130_fd_sc_hd__and3_2
*I *1256:X O *D sky130_fd_sc_hd__or3_2
*CAP
1 *1257:C 0.000130404
2 *1256:X 0.000130404
3 *1257:C *439:16 4.66108e-05
4 *1257:B *1257:C 1.39431e-05
*RES
1 *1256:X *1257:C 4.685 
*END

*D_NET *220 0.00108106
*CONN
*I *1260:B I *D sky130_fd_sc_hd__and3_2
*I *1258:Y O *D sky130_fd_sc_hd__o21ai_2
*CAP
1 *1260:B 0.000409698
2 *1258:Y 0.000409698
3 *1260:B *1259:A 7.06865e-05
4 *1260:B *1260:C 7.06865e-05
5 *1260:B *437:6 9.60582e-07
6 *1260:B *437:8 3.11463e-05
7 *1533:D *1260:B 8.81825e-05
*RES
1 *1258:Y *1260:B 12.075 
*END

*D_NET *221 0.000811726
*CONN
*I *1260:C I *D sky130_fd_sc_hd__and3_2
*I *1259:X O *D sky130_fd_sc_hd__or3_2
*CAP
1 *1260:C 0.000255927
2 *1259:X 0.000255927
3 *1260:C *1259:A 5.53698e-05
4 *1260:C *1259:B 7.23533e-05
5 *1260:C *1425:B 0
6 *1260:C *438:14 4.89295e-05
7 *1260:B *1260:C 7.06865e-05
8 *1533:D *1260:C 1.77665e-05
9 *1575:D *1260:C 3.47668e-05
*RES
1 *1259:X *1260:C 12.03 
*END

*D_NET *222 0.000497515
*CONN
*I *1263:B I *D sky130_fd_sc_hd__and3_2
*I *1261:Y O *D sky130_fd_sc_hd__o21ai_2
*CAP
1 *1263:B 0.00019278
2 *1261:Y 0.00019278
3 *1263:B *1263:C 7.68414e-06
4 *1263:B *548:24 3.45588e-05
5 *1534:D *1263:B 6.97118e-05
*RES
1 *1261:Y *1263:B 5.735 
*END

*D_NET *223 0.00121614
*CONN
*I *1263:C I *D sky130_fd_sc_hd__and3_2
*I *1262:X O *D sky130_fd_sc_hd__or3_2
*CAP
1 *1263:C 0.00039376
2 *1262:X 0.00039376
3 *1263:C *1261:A1 3.25676e-05
4 *1263:C *1261:B1 0.000195476
5 *1263:C *548:24 8.65905e-05
6 *1263:B *1263:C 7.68414e-06
7 *1534:D *1263:C 0.0001063
*RES
1 *1262:X *1263:C 8.945 
*END

*D_NET *224 0.000583022
*CONN
*I *1266:B I *D sky130_fd_sc_hd__and3_2
*I *1264:Y O *D sky130_fd_sc_hd__o21ai_2
*CAP
1 *1266:B 0.000123401
2 *1264:Y 0.000123401
3 *1266:B *1253:A 0
4 *1266:B *1265:B 0.000100162
5 *1266:B *1406:A0 0.000182055
6 *1266:B *436:67 0
7 *1266:B *450:25 5.4003e-05
8 *1266:B *450:54 0
9 *1535:D *1266:B 0
*RES
1 *1264:Y *1266:B 10.365 
*END

*D_NET *225 0.00121307
*CONN
*I *1266:C I *D sky130_fd_sc_hd__and3_2
*I *1265:X O *D sky130_fd_sc_hd__or3_2
*CAP
1 *1266:C 0.000244027
2 *1265:X 0.000244027
3 *1266:C *1253:B 3.03775e-05
4 *1266:C *1253:C 0.000161529
5 *1266:C *1265:A 7.18817e-05
6 *1266:C *1429:B 0
7 *1266:C *434:74 0.000201114
8 *1266:C *436:67 0.000133541
9 *1535:D *1266:C 0.00012657
*RES
1 *1265:X *1266:C 13.23 
*END

*D_NET *226 0.000347256
*CONN
*I *1269:A1 I *D sky130_fd_sc_hd__a21bo_2
*I *1267:X O *D sky130_fd_sc_hd__or3_2
*CAP
1 *1269:A1 0.000159769
2 *1267:X 0.000159769
3 *1269:A1 *1265:B 0
4 *1269:A1 *1267:A 0
5 *1269:A1 *450:29 2.77183e-05
*RES
1 *1267:X *1269:A1 9.375 
*END

*D_NET *227 0.000959526
*CONN
*I *1269:A2 I *D sky130_fd_sc_hd__a21bo_2
*I *1268:Y O *D sky130_fd_sc_hd__o21ai_2
*CAP
1 *1269:A2 0.000146752
2 *1268:Y 0.000146752
3 *1269:A2 *1267:B 9.30787e-05
4 *1269:A2 *1268:A2 3.59997e-05
5 *1269:A2 *1269:B1_N 3.59496e-05
6 *1269:A2 *434:80 0.000385333
7 *1269:A2 *449:62 6.4909e-05
8 *1536:D *1269:A2 5.0751e-05
*RES
1 *1268:Y *1269:A2 12.24 
*END

*D_NET *228 0.000332603
*CONN
*I *1272:B I *D sky130_fd_sc_hd__and3_2
*I *1270:Y O *D sky130_fd_sc_hd__o21ai_2
*CAP
1 *1272:B 0.000108976
2 *1270:Y 0.000108976
3 *1272:B *1271:C 1.33293e-05
4 *1272:B *449:27 1.47256e-05
5 *1272:B *586:147 8.65961e-05
*RES
1 *1270:Y *1272:B 4.685 
*END

*D_NET *229 0.000526938
*CONN
*I *1272:C I *D sky130_fd_sc_hd__and3_2
*I *1271:X O *D sky130_fd_sc_hd__or3_2
*CAP
1 *1272:C 0.00014819
2 *1271:X 0.00014819
3 *1272:C *1251:A 1.88602e-05
4 *1272:C *1271:C 4.82919e-05
5 *1272:C *1272:A 8.65961e-05
6 *1272:C *338:10 3.67993e-05
7 *1272:C *449:27 1.46744e-05
8 *1272:C *586:147 2.53366e-05
*RES
1 *1271:X *1272:C 9.555 
*END

*D_NET *230 0.000581089
*CONN
*I *1275:B I *D sky130_fd_sc_hd__and3_2
*I *1273:Y O *D sky130_fd_sc_hd__o21ai_2
*CAP
1 *1275:B 0.000215218
2 *1273:Y 0.000215218
3 *1275:B *1275:A 0
4 *1275:B *1275:C 0
5 *1275:B *447:10 5.12859e-05
6 *1275:B *447:14 1.22676e-05
7 *1275:B *540:46 0
8 *1538:D *1275:B 8.71001e-05
*RES
1 *1273:Y *1275:B 11.13 
*END

*D_NET *231 0.00105418
*CONN
*I *1275:C I *D sky130_fd_sc_hd__and3_2
*I *1274:X O *D sky130_fd_sc_hd__or3_2
*CAP
1 *1275:C 0.000474366
2 *1274:X 0.000474366
3 *1275:C *1537:CLK 0
4 *1275:C *434:80 0
5 *1275:C *447:10 0
6 uio_out[4] *1275:C 1.88602e-05
7 uio_out[5] *1275:C 8.65905e-05
8 *1275:B *1275:C 0
9 *1538:D *1275:C 0
*RES
1 *1274:X *1275:C 14.34 
*END

*D_NET *232 0.000369883
*CONN
*I *1278:B I *D sky130_fd_sc_hd__and3_2
*I *1276:Y O *D sky130_fd_sc_hd__o21ai_2
*CAP
1 *1278:B 0.000103949
2 *1276:Y 0.000103949
3 uio_oe[0] *1278:B 0.000161985
*RES
1 *1276:Y *1278:B 4.685 
*END

*D_NET *233 0.000822106
*CONN
*I *1278:C I *D sky130_fd_sc_hd__and3_2
*I *1277:X O *D sky130_fd_sc_hd__or3_2
*CAP
1 *1278:C 0.000221482
2 *1277:X 0.000221482
3 *1278:C *1295:A 8.40269e-05
4 *1278:C *1295:B 2.91921e-05
5 *1278:C *434:101 8.45475e-05
6 *1278:C *434:103 0.000181376
*RES
1 *1277:X *1278:C 11.505 
*END

*D_NET *234 0.000488209
*CONN
*I *1281:B I *D sky130_fd_sc_hd__and3_2
*I *1279:Y O *D sky130_fd_sc_hd__o21ai_2
*CAP
1 *1281:B 0.000183143
2 *1279:Y 0.000183143
3 *1281:B *1281:C 2.66586e-05
4 *1540:D *1281:B 9.52646e-05
*RES
1 *1279:Y *1281:B 5.735 
*END

*D_NET *235 0.00109748
*CONN
*I *1281:C I *D sky130_fd_sc_hd__and3_2
*I *1280:X O *D sky130_fd_sc_hd__or3_2
*CAP
1 *1281:C 0.000119236
2 *1280:X 0.000119236
3 *1281:C *1279:A1 4.82863e-05
4 *1281:C *1279:A2 4.99619e-05
5 *1281:C *1280:B 7.63204e-05
6 *1281:C *1280:C 0.000159964
7 *1281:C *1281:A 4.82863e-05
8 *1281:C *445:56 7.49327e-05
9 *1281:C *540:58 0.000313857
10 *1281:B *1281:C 2.66586e-05
11 *1540:D *1281:C 6.07412e-05
*RES
1 *1280:X *1281:C 12.3 
*END

*D_NET *236 0.000444461
*CONN
*I *1284:B I *D sky130_fd_sc_hd__and3_2
*I *1282:Y O *D sky130_fd_sc_hd__o21ai_2
*CAP
1 *1284:B 9.99623e-05
2 *1282:Y 9.99623e-05
3 *1284:B *1282:A2 1.91597e-05
4 *1284:B *1283:B 8.65905e-05
5 *1284:B *1284:C 7.4027e-05
6 *1284:B *444:55 5.21046e-05
7 *1284:B *540:77 1.26548e-05
*RES
1 *1282:Y *1284:B 9.465 
*END

*D_NET *237 0.000454298
*CONN
*I *1284:C I *D sky130_fd_sc_hd__and3_2
*I *1283:X O *D sky130_fd_sc_hd__or3_2
*CAP
1 *1284:C 7.72115e-05
2 *1283:X 7.72115e-05
3 *1284:C *1621:A 1.83847e-05
4 *1284:C *444:55 3.56353e-05
5 *1284:C *540:71 9.50342e-06
6 *1284:C *540:77 0.000162325
7 *1284:B *1284:C 7.4027e-05
*RES
1 *1283:X *1284:C 9.54 
*END

*D_NET *238 0.000937111
*CONN
*I *1287:B I *D sky130_fd_sc_hd__and3_2
*I *1285:Y O *D sky130_fd_sc_hd__o21ai_2
*CAP
1 *1287:B 0.000238784
2 *1285:Y 0.000238784
3 *1287:B *1286:A 4.66108e-05
4 *1287:B *1286:C 4.21973e-05
5 *1287:B *1287:C 7.4027e-05
6 *1287:B *1290:A 1.4389e-05
7 *1287:B *442:12 3.26084e-05
8 *1287:B *442:23 1.32017e-05
9 *1287:B *443:12 4.82919e-05
10 *1287:B *444:20 1.48096e-05
11 *1315:B1 *1287:B 7.79678e-05
12 *1542:D *1287:B 9.54399e-05
*RES
1 *1285:Y *1287:B 12.225 
*END

*D_NET *239 0.000188969
*CONN
*I *1287:C I *D sky130_fd_sc_hd__and3_2
*I *1286:X O *D sky130_fd_sc_hd__or3_2
*CAP
1 *1287:C 2.04575e-05
2 *1286:X 2.04575e-05
3 *1287:B *1287:C 7.4027e-05
4 *1315:B1 *1287:C 7.4027e-05
*RES
1 *1286:X *1287:C 8.07 
*END

*D_NET *240 0.000819644
*CONN
*I *1290:B I *D sky130_fd_sc_hd__and3_2
*I *1288:Y O *D sky130_fd_sc_hd__o21ai_2
*CAP
1 *1290:B 0.000113592
2 *1288:Y 0.000113592
3 *1290:B *1288:A1 0.000312969
4 *1290:B *1288:B1 0.000270961
5 *1290:B *1621:A 0
6 *1290:B *435:69 8.53113e-06
7 *1290:B *538:66 0
*RES
1 *1288:Y *1290:B 11.13 
*END

*D_NET *241 0.000349316
*CONN
*I *1290:C I *D sky130_fd_sc_hd__and3_2
*I *1289:X O *D sky130_fd_sc_hd__or3_2
*CAP
1 *1290:C 0.000109426
2 *1289:X 0.000109426
3 *1290:C *1288:B1 4.21973e-05
4 *1290:C *1290:A 8.8266e-05
*RES
1 *1289:X *1290:C 4.685 
*END

*D_NET *242 0.000797599
*CONN
*I *1293:B I *D sky130_fd_sc_hd__and3_2
*I *1291:Y O *D sky130_fd_sc_hd__o21ai_2
*CAP
1 *1293:B 0.000115504
2 *1291:Y 0.000115504
3 *1293:B *1293:C 0.000268278
4 *1293:B *1406:S0 1.08758e-05
5 *1293:B *435:10 9.30717e-05
6 *1293:B *435:51 0.000175207
7 *1293:B *538:120 1.91597e-05
*RES
1 *1291:Y *1293:B 10.815 
*END

*D_NET *243 0.00134671
*CONN
*I *1293:C I *D sky130_fd_sc_hd__and3_2
*I *1292:X O *D sky130_fd_sc_hd__or3_2
*CAP
1 *1293:C 0.000183945
2 *1292:X 0.000183945
3 *1293:C *1410:S 4.88568e-05
4 *1293:C *435:10 7.90356e-06
5 *1293:C *435:12 7.28401e-05
6 *1293:C *435:51 1.97849e-05
7 *1293:C *462:16 4.99619e-05
8 *1293:B *1293:C 0.000268278
9 *1411:A *1293:C 0.000511195
*RES
1 *1292:X *1293:C 13.62 
*END

*D_NET *244 0.00119935
*CONN
*I *1296:B I *D sky130_fd_sc_hd__and3_2
*I *1294:Y O *D sky130_fd_sc_hd__o21ai_2
*CAP
1 *1296:B 0.000270587
2 *1294:Y 0.000270587
3 *1296:B *1417:A2 7.06865e-05
4 *1296:B *1544:CLK 2.78574e-05
5 *1296:B *1603:A 0.00035442
6 *1296:B *434:118 6.98693e-05
7 *1296:B *540:46 4.58406e-05
8 *1545:D *1296:B 8.94992e-05
*RES
1 *1294:Y *1296:B 13.215 
*END

*D_NET *245 0.0003378
*CONN
*I *1296:C I *D sky130_fd_sc_hd__and3_2
*I *1295:X O *D sky130_fd_sc_hd__or3_2
*CAP
1 *1296:C 0.000127234
2 *1295:X 0.000127234
3 *1296:C *1296:A 8.33308e-05
*RES
1 *1295:X *1296:C 4.685 
*END

*D_NET *246 0.00189909
*CONN
*I *1307:B1 I *D sky130_fd_sc_hd__a211o_2
*I *1308:A1 I *D sky130_fd_sc_hd__o211ai_2
*I *1298:Y O *D sky130_fd_sc_hd__nor2_2
*CAP
1 *1307:B1 0.000200733
2 *1308:A1 0
3 *1298:Y 0.000392766
4 *246:10 0.000593499
5 *1307:B1 *1305:B 8.7152e-06
6 *1307:B1 *1308:A2 7.41321e-05
7 *1307:B1 *1315:A2 4.3418e-05
8 *1307:B1 *1557:CLK 1.82907e-05
9 *1307:B1 *535:78 0
10 *246:10 *1303:C 4.15487e-05
11 *246:10 *1305:B 5.07376e-05
12 *246:10 *1308:A2 4.55864e-06
13 *246:10 *1557:CLK 0.000106465
14 *246:10 *535:78 0
15 *246:10 *538:10 8.7019e-05
16 *246:10 *538:66 1.88602e-05
17 *1167:A *246:10 6.10014e-05
18 *1218:B2 *246:10 2.76356e-05
19 *1220:B2 *246:10 1.33285e-05
20 *1220:C1 *246:10 8.40213e-05
21 *1551:D *246:10 7.23602e-05
*RES
1 *1298:Y *246:10 10.89 
2 *246:10 *1308:A1 3.6 
3 *246:10 *1307:B1 6.795 
*END

*D_NET *247 0.00134771
*CONN
*I *1302:B I *D sky130_fd_sc_hd__and3_2
*I *1301:A1 I *D sky130_fd_sc_hd__a21o_2
*I *1299:Y O *D sky130_fd_sc_hd__nand2b_2
*CAP
1 *1302:B 0.000177088
2 *1301:A1 4.53982e-05
3 *1299:Y 0.000222486
4 *1301:A1 *1301:A2 4.66108e-05
5 *1301:A1 *1302:A 0.000198051
6 *1301:A1 *533:93 4.92062e-05
7 *1301:A1 *533:101 4.3375e-05
8 *1302:B *1301:A2 0.000162311
9 *1302:B *533:91 0.000165942
10 *1302:B *533:93 0.000237243
*RES
1 *1299:Y *1301:A1 5.03 
2 *1299:Y *1302:B 7.46 
*END

*D_NET *248 0.00157849
*CONN
*I *1302:C I *D sky130_fd_sc_hd__and3_2
*I *1301:A2 I *D sky130_fd_sc_hd__a21o_2
*I *1300:Y O *D sky130_fd_sc_hd__nand2b_2
*CAP
1 *1302:C 0.000185793
2 *1301:A2 0.000290447
3 *1300:Y 0.00047624
4 *1301:A2 *533:93 7.99009e-05
5 *1301:A2 *533:101 7.16017e-05
6 *1301:A2 *537:160 3.35503e-05
7 *1301:A2 *585:68 7.03893e-05
8 *1302:C *1302:A 0.00010043
9 *1302:C *533:91 6.12198e-05
10 *1301:A1 *1301:A2 4.66108e-05
11 *1302:B *1301:A2 0.000162311
*RES
1 *1300:Y *1301:A2 11.73 
2 *1300:Y *1302:C 5.735 
*END

*D_NET *249 0.00104013
*CONN
*I *1303:C I *D sky130_fd_sc_hd__and3b_2
*I *1301:X O *D sky130_fd_sc_hd__a21o_2
*CAP
1 *1303:C 0.000381661
2 *1301:X 0.000381661
3 *1303:C *1305:B 1.43623e-05
4 *1303:C *1315:A2 2.50702e-05
5 *1303:C *250:12 0.000166058
6 *1303:C *535:78 2.97705e-05
7 *246:10 *1303:C 4.15487e-05
*RES
1 *1301:X *1303:C 12.2587 
*END

*D_NET *250 0.00303212
*CONN
*I *1303:A_N I *D sky130_fd_sc_hd__and3b_2
*I *1307:C1 I *D sky130_fd_sc_hd__a211o_2
*I *1308:A2 I *D sky130_fd_sc_hd__o211ai_2
*I *1302:X O *D sky130_fd_sc_hd__and3_2
*CAP
1 *1303:A_N 0
2 *1307:C1 3.47634e-05
3 *1308:A2 7.87306e-05
4 *1302:X 0.000249116
5 *250:20 0.000331807
6 *250:12 0.000467429
7 *1307:C1 *1315:A1 8.52137e-06
8 *1307:C1 *252:32 3.21081e-06
9 *1307:C1 *535:110 0
10 *1308:A2 *1315:A1 1.83847e-05
11 *1308:A2 *1557:CLK 0.000157535
12 *1308:A2 *535:78 4.82919e-05
13 *250:12 *1303:B 1.7386e-05
14 *250:12 *474:10 0.000383652
15 *250:12 *538:66 7.97096e-05
16 *250:12 *586:64 6.19517e-05
17 *250:12 *587:68 4.94326e-05
18 *250:20 *1315:A1 0.000107475
19 *250:20 *1621:A 2.76346e-05
20 *250:20 *535:78 0.000223022
21 *250:20 *537:160 0.000100162
22 *250:20 *585:68 0.000149437
23 *1303:C *250:12 0.000166058
24 *1307:B1 *1308:A2 7.41321e-05
25 *1555:D *250:12 0.000189719
26 *246:10 *1308:A2 4.55864e-06
*RES
1 *1302:X *250:12 12.695 
2 *250:12 *250:20 9.7 
3 *250:20 *1308:A2 7.94 
4 *250:20 *1307:C1 2.215 
5 *250:12 *1303:A_N 1.6 
*END

*D_NET *251 0.00679715
*CONN
*I *1318:B I *D sky130_fd_sc_hd__and2b_2
*I *1306:B I *D sky130_fd_sc_hd__or2_2
*I *1336:B I *D sky130_fd_sc_hd__or2_2
*I *1335:B I *D sky130_fd_sc_hd__nand2_2
*I *1340:B I *D sky130_fd_sc_hd__xnor2_2
*I *1305:B I *D sky130_fd_sc_hd__nand2_2
*I *1304:Y O *D sky130_fd_sc_hd__nand2b_2
*CAP
1 *1318:B 0.000133674
2 *1306:B 0
3 *1336:B 0.000144124
4 *1335:B 0
5 *1340:B 0
6 *1305:B 0.000511161
7 *1304:Y 3.18487e-05
8 *251:52 0.000222545
9 *251:43 0.000699884
10 *251:33 0.000665203
11 *251:10 0.000834196
12 *251:8 0.000444817
13 *1305:B *1305:A 7.22329e-05
14 *1305:B *1308:B1 2.11084e-05
15 *1305:B *1309:C 4.9968e-05
16 *1305:B *1315:A2 6.1317e-05
17 *1305:B *252:8 6.68173e-06
18 *1305:B *253:6 6.66464e-05
19 *1305:B *255:6 3.81908e-06
20 *1305:B *535:78 0
21 *1318:B *1304:B 3.09233e-05
22 *1318:B *1320:A2 3.50033e-05
23 *1318:B *262:37 3.26822e-05
24 *1318:B *536:46 0.000172852
25 *1318:B *586:50 6.97034e-05
26 *1336:B *1139:A 8.57024e-05
27 *1336:B *1335:A 0.000113191
28 *1336:B *1514:B 7.46533e-05
29 *1336:B *277:8 0.000124007
30 *1336:B *481:21 3.83041e-05
31 *251:8 *263:12 2.49909e-05
32 *251:10 *1304:B 0.00011686
33 *251:10 *1307:A2 0
34 *251:10 *1309:B 0
35 *251:10 *1309:C 6.68849e-05
36 *251:10 *1313:B 8.66107e-06
37 *251:10 *1320:A2 7.12228e-06
38 *251:10 *260:10 8.53322e-05
39 *251:10 *476:22 7.0176e-05
40 *251:10 *535:129 2.24992e-05
41 *251:10 *536:46 0.000573678
42 *251:33 *1305:A 4.66108e-05
43 *251:33 *1314:A2 3.03684e-05
44 *251:33 *255:6 1.19928e-05
45 *251:33 *475:36 3.38341e-05
46 *251:43 *1314:A2 4.9253e-06
47 *251:43 *1514:B 1.65192e-05
48 *251:43 *1516:A2 9.5433e-05
49 *251:43 *1556:CLK 4.66108e-05
50 *251:43 *1642:A 5.05437e-05
51 *251:43 *475:36 2.16917e-05
52 *251:52 *1335:A 5.53249e-06
53 *251:52 *1514:B 6.65717e-05
54 *1303:C *1305:B 1.43623e-05
55 *1307:B1 *1305:B 8.7152e-06
56 *1522:B2 *251:43 0
57 *1556:D *251:43 0.000499496
58 *123:14 *251:43 4.18603e-06
59 *123:14 *251:52 6.65717e-05
60 *246:10 *1305:B 5.07376e-05
*RES
1 *1304:Y *251:8 4.05 
2 *251:8 *251:10 8.01 
3 *251:10 *1305:B 14.56 
4 *251:10 *251:33 3.14 
5 *251:33 *251:43 13.43 
6 *251:43 *1340:B 3.6 
7 *251:43 *251:52 2.145 
8 *251:52 *1335:B 3.6 
9 *251:52 *1336:B 7.59 
10 *251:33 *1306:B 1.6 
11 *251:8 *1318:B 6.885 
*END

*D_NET *252 0.00330263
*CONN
*I *1315:A1 I *D sky130_fd_sc_hd__a31o_2
*I *1314:A1 I *D sky130_fd_sc_hd__a21o_2
*I *1307:A1 I *D sky130_fd_sc_hd__a211o_2
*I *1308:B1 I *D sky130_fd_sc_hd__o211ai_2
*I *1305:Y O *D sky130_fd_sc_hd__nand2_2
*CAP
1 *1315:A1 0.000152242
2 *1314:A1 0.000183711
3 *1307:A1 0
4 *1308:B1 5.68939e-05
5 *1305:Y 0.000198862
6 *252:32 0.000352775
7 *252:25 7.02719e-05
8 *252:8 0.000309205
9 *1308:B1 *1557:CLK 5.23362e-05
10 *1308:B1 *533:116 3.24046e-05
11 *1314:A1 *1307:A2 0.000120655
12 *1314:A1 *1312:A 2.05056e-05
13 *1314:A1 *1314:A2 9.44791e-05
14 *1314:A1 *1316:A_N 0.00045334
15 *1314:A1 *1517:A1 9.57611e-05
16 *1314:A1 *1519:A 4.82863e-05
17 *1314:A1 *476:22 0.0001947
18 *1314:A1 *535:78 8.73389e-06
19 *1314:A1 *535:110 6.1357e-05
20 *1315:A1 *1316:A_N 0.000184002
21 *1315:A1 *535:78 1.48096e-05
22 *252:8 *1315:A2 0.000198945
23 *252:25 *1557:CLK 0.000135144
24 *252:25 *533:116 2.67013e-05
25 *252:25 *535:82 7.11219e-05
26 *1305:B *1308:B1 2.11084e-05
27 *1305:B *252:8 6.68173e-06
28 *1307:C1 *1315:A1 8.52137e-06
29 *1307:C1 *252:32 3.21081e-06
30 *1308:A2 *1315:A1 1.83847e-05
31 *250:20 *1315:A1 0.000107475
*RES
1 *1305:Y *252:8 6.12 
2 *252:8 *1308:B1 5.025 
3 *252:8 *252:25 3.635 
4 *252:25 *1307:A1 1.6 
5 *252:25 *252:32 0.36 
6 *252:32 *1314:A1 11.66 
7 *252:32 *1315:A1 5.545 
*END

*D_NET *253 0.00101525
*CONN
*I *1308:C1 I *D sky130_fd_sc_hd__o211ai_2
*I *1307:A2 I *D sky130_fd_sc_hd__a211o_2
*I *1306:X O *D sky130_fd_sc_hd__or2_2
*CAP
1 *1308:C1 0
2 *1307:A2 0.000140854
3 *1306:X 3.80417e-05
4 *253:6 0.000178896
5 *1307:A2 *1309:B 8.90632e-05
6 *1307:A2 *1313:B 2.49751e-05
7 *1307:A2 *533:116 1.01911e-05
8 *1307:A2 *533:131 2.01214e-05
9 *1307:A2 *535:110 0.000120655
10 *253:6 *1305:A 3.64998e-06
11 *253:6 *255:6 0.000201503
12 *1305:B *253:6 6.66464e-05
13 *1314:A1 *1307:A2 0.000120655
14 *251:10 *1307:A2 0
*RES
1 *1306:X *253:6 3.43 
2 *253:6 *1307:A2 8.63 
3 *253:6 *1308:C1 1.6 
*END

*D_NET *254 0.00143419
*CONN
*I *1309:B I *D sky130_fd_sc_hd__and3_2
*I *1307:X O *D sky130_fd_sc_hd__a211o_2
*CAP
1 *1309:B 0.000347193
2 *1307:X 0.000347193
3 *1309:B *1298:A 7.9642e-06
4 *1309:B *1309:C 0
5 *1309:B *1623:A 1.22127e-05
6 *1309:B *473:42 0.000313852
7 *1309:B *533:116 0.000316717
8 *1307:A2 *1309:B 8.90632e-05
9 *251:10 *1309:B 0
*RES
1 *1307:X *1309:B 14.355 
*END

*D_NET *255 0.00290811
*CONN
*I *1315:A2 I *D sky130_fd_sc_hd__a31o_2
*I *1309:C I *D sky130_fd_sc_hd__and3_2
*I *1314:A2 I *D sky130_fd_sc_hd__a21o_2
*I *1308:Y O *D sky130_fd_sc_hd__o211ai_2
*CAP
1 *1315:A2 0.000264301
2 *1309:C 0.000102096
3 *1314:A2 0.000193834
4 *1308:Y 0.000487402
5 *255:6 0.00051903
6 *1309:C *536:46 0.000201134
7 *1309:C *536:48 7.9642e-06
8 *1314:A2 *1316:A_N 9.71067e-05
9 *1314:A2 *1517:A1 3.114e-05
10 *1314:A2 *1519:A 0
11 *1314:A2 *478:19 4.43871e-06
12 *1314:A2 *536:46 0.000116092
13 *1315:A2 *1315:A3 3.12375e-05
14 *1315:A2 *535:78 3.32916e-05
15 *1315:A2 *585:68 0
16 *255:6 *1305:A 6.07575e-06
17 *1303:C *1315:A2 2.50702e-05
18 *1305:B *1309:C 4.9968e-05
19 *1305:B *1315:A2 6.1317e-05
20 *1305:B *255:6 3.81908e-06
21 *1307:B1 *1315:A2 4.3418e-05
22 *1309:B *1309:C 0
23 *1314:A1 *1314:A2 9.44791e-05
24 *1315:B1 *1315:A2 1.23192e-05
25 *133:18 *1314:A2 7.96104e-06
26 *251:10 *1309:C 6.68849e-05
27 *251:33 *1314:A2 3.03684e-05
28 *251:33 *255:6 1.19928e-05
29 *251:43 *1314:A2 4.9253e-06
30 *252:8 *1315:A2 0.000198945
31 *253:6 *255:6 0.000201503
*RES
1 *1308:Y *255:6 4.465 
2 *255:6 *1314:A2 9.56 
3 *255:6 *1309:C 8 
4 *1308:Y *1315:A2 12.33 
*END

*D_NET *256 0.00383831
*CONN
*I *1323:B I *D sky130_fd_sc_hd__or2_2
*I *1322:B I *D sky130_fd_sc_hd__nand2_2
*I *1328:B I *D sky130_fd_sc_hd__nor2_2
*I *1327:B I *D sky130_fd_sc_hd__and2_2
*I *1310:Y O *D sky130_fd_sc_hd__nor2_2
*CAP
1 *1323:B 0.000340944
2 *1322:B 0
3 *1328:B 0.000148195
4 *1327:B 0
5 *1310:Y 0.000592788
6 *256:23 0.000148195
7 *256:21 0.000518534
8 *256:12 0.000770378
9 *1323:B *1323:A 8.65961e-05
10 *1323:B *1559:CLK 2.97004e-06
11 *1323:B *582:43 0
12 *256:12 *1310:A 4.82919e-05
13 *256:12 *1321:B 8.65905e-05
14 *256:12 *1321:C 2.0514e-05
15 *256:12 *1329:A1 5.16418e-05
16 *256:12 *1518:C1 2.99518e-06
17 *256:12 *266:10 0
18 *256:12 *478:19 0
19 *256:12 *582:43 0
20 *256:12 *586:50 0.000665834
21 *256:21 *1329:A1 0.00019189
22 *256:21 *1331:B 6.02202e-05
23 *256:21 *1559:CLK 5.51245e-05
24 *256:21 *266:10 0
25 *256:21 *536:16 0
26 *256:21 *582:43 0
27 *1321:A *256:12 4.66108e-05
*RES
1 *1310:Y *256:12 14.325 
2 *256:12 *1327:B 3.6 
3 *256:12 *256:21 4.185 
4 *256:21 *256:23 2 
5 *256:23 *1328:B 3.775 
6 *256:23 *1322:B 1.6 
7 *256:21 *1323:B 9.21 
*END

*D_NET *257 0.00146762
*CONN
*I *1320:A1 I *D sky130_fd_sc_hd__a211oi_2
*I *1319:B1 I *D sky130_fd_sc_hd__o211a_2
*I *1313:A I *D sky130_fd_sc_hd__nand2_2
*I *1311:Y O *D sky130_fd_sc_hd__o21ai_2
*CAP
1 *1320:A1 0.000118813
2 *1319:B1 0
3 *1313:A 0.00018375
4 *1311:Y 9.57146e-05
5 *257:12 0.00018375
6 *257:10 0.000214528
7 *1313:A *1313:B 5.43553e-05
8 *1313:A *1319:A1 1.12643e-05
9 *1313:A *1319:A2 3.70572e-05
10 *1313:A *1321:B 2.49909e-05
11 *1313:A *262:10 8.49205e-05
12 *1313:A *535:129 0
13 *1320:A1 *1313:B 2.15594e-05
14 *1320:A1 *1319:A2 4.07468e-05
15 *1320:A1 *1320:A2 3.03775e-05
16 *1320:A1 *1321:B 0
17 *1320:A1 *262:10 5.53249e-06
18 *1320:A1 *262:27 0.000102708
19 *1320:A1 *262:37 4.43871e-06
20 *1320:A1 *265:8 3.09164e-05
21 *257:10 *1310:A 0
22 *257:10 *1311:A2 7.00889e-06
23 *257:10 *1313:B 8.2668e-05
24 *257:10 *1314:B1 4.82919e-05
25 *257:10 *262:10 2.7881e-05
26 *257:10 *476:22 1.61831e-05
27 *257:10 *533:144 4.01616e-05
*RES
1 *1311:Y *257:10 5.94 
2 *257:10 *257:12 2 
3 *257:12 *1313:A 5.185 
4 *257:12 *1319:B1 1.6 
5 *257:10 *1320:A1 6.285 
*END

*D_NET *258 0.00206657
*CONN
*I *1313:B I *D sky130_fd_sc_hd__nand2_2
*I *1312:X O *D sky130_fd_sc_hd__or3_2
*CAP
1 *1313:B 0.000573463
2 *1312:X 0.000573463
3 *1313:B *1312:A 8.65905e-05
4 *1313:B *1312:B 8.8266e-05
5 *1313:B *1319:A1 6.03947e-06
6 *1313:B *1319:A2 0.00015326
7 *1313:B *1320:A2 1.15688e-05
8 *1313:B *1321:B 4.66108e-05
9 *1313:B *260:10 1.07797e-05
10 *1313:B *533:131 0
11 *1313:B *533:144 0
12 *1313:B *535:129 0.000324312
13 *1307:A2 *1313:B 2.49751e-05
14 *1313:A *1313:B 5.43553e-05
15 *1320:A1 *1313:B 2.15594e-05
16 *251:10 *1313:B 8.66107e-06
17 *257:10 *1313:B 8.2668e-05
*RES
1 *1312:X *1313:B 17.235 
*END

*D_NET *259 0.00219884
*CONN
*I *1314:B1 I *D sky130_fd_sc_hd__a21o_2
*I *1315:A3 I *D sky130_fd_sc_hd__a31o_2
*I *1313:Y O *D sky130_fd_sc_hd__nand2_2
*CAP
1 *1314:B1 0.000565488
2 *1315:A3 0.000169038
3 *1313:Y 7.69731e-05
4 *259:8 0.000811499
5 *1314:B1 *1311:A2 1.34503e-05
6 *1314:B1 *1515:A1 4.82863e-05
7 *1314:B1 *1557:CLK 2.75229e-05
8 *1314:B1 *260:6 0.000179651
9 *1314:B1 *476:12 6.19997e-05
10 *1314:B1 *476:22 0.000131508
11 *1315:A3 *1310:A 0
12 *1315:A3 *1557:CLK 0
13 *259:8 *1310:A 0
14 *259:8 *1310:B 3.38952e-05
15 *1315:A2 *1315:A3 3.12375e-05
16 *1315:B1 *1315:A3 0
17 *1315:B1 *259:8 0
18 *257:10 *1314:B1 4.82919e-05
*RES
1 *1313:Y *259:8 4.98 
2 *259:8 *1315:A3 6 
3 *259:8 *1314:B1 12.27 
*END

*D_NET *260 0.00257567
*CONN
*I *1316:B I *D sky130_fd_sc_hd__and2b_2
*I *1320:A2 I *D sky130_fd_sc_hd__a211oi_2
*I *1319:C1 I *D sky130_fd_sc_hd__o211a_2
*I *1314:X O *D sky130_fd_sc_hd__a21o_2
*CAP
1 *1316:B 0
2 *1320:A2 0.000424019
3 *1319:C1 3.28947e-05
4 *1314:X 0.000208919
5 *260:10 0.000531217
6 *260:6 0.000283222
7 *1319:C1 *1319:A2 4.82863e-05
8 *1319:C1 *262:10 1.91597e-05
9 *1319:C1 *535:129 4.66108e-05
10 *1320:A2 *1286:C 0
11 *1320:A2 *1304:B 0.000141606
12 *1320:A2 *1319:A2 0.000164679
13 *1320:A2 *262:27 2.8585e-06
14 *1320:A2 *262:37 2.56518e-05
15 *260:6 *1515:A1 2.59926e-05
16 *260:10 *535:129 0.000134236
17 *1313:B *1320:A2 1.15688e-05
18 *1313:B *260:10 1.07797e-05
19 *1314:B1 *260:6 0.000179651
20 *1318:B *1320:A2 3.50033e-05
21 *1320:A1 *1320:A2 3.03775e-05
22 *1515:A2 *260:6 5.83121e-06
23 *1558:D *1320:A2 0.000120655
24 *251:10 *1320:A2 7.12228e-06
25 *251:10 *260:10 8.53322e-05
*RES
1 *1314:X *260:6 5.155 
2 *260:6 *260:10 3.89 
3 *260:10 *1319:C1 4.395 
4 *260:10 *1320:A2 10.425 
5 *260:6 *1316:B 1.6 
*END

*D_NET *261 0.00178168
*CONN
*I *1316:A_N I *D sky130_fd_sc_hd__and2b_2
*I *1315:X O *D sky130_fd_sc_hd__a31o_2
*CAP
1 *1316:A_N 0.000475897
2 *1315:X 0.000475897
3 *1316:A_N *536:46 9.54399e-05
4 *1314:A1 *1316:A_N 0.00045334
5 *1314:A2 *1316:A_N 9.71067e-05
6 *1315:A1 *1316:A_N 0.000184002
*RES
1 *1315:X *1316:A_N 14.295 
*END

*D_NET *262 0.00300826
*CONN
*I *1320:B1 I *D sky130_fd_sc_hd__a211oi_2
*I *1324:B1 I *D sky130_fd_sc_hd__a211o_2
*I *1325:A1 I *D sky130_fd_sc_hd__o211ai_2
*I *1319:A1 I *D sky130_fd_sc_hd__o211a_2
*I *1317:X O *D sky130_fd_sc_hd__and3b_2
*CAP
1 *1320:B1 0
2 *1324:B1 0.000147635
3 *1325:A1 0.000134914
4 *1319:A1 3.98831e-06
5 *1317:X 0.000230519
6 *262:37 0.000526214
7 *262:27 0.000429823
8 *262:10 0.000420666
9 *1324:B1 *1324:A1 1.85674e-05
10 *1324:B1 *1324:A2 2.16833e-05
11 *1324:B1 *1324:C1 8.89259e-05
12 *1324:B1 *1325:B1 0.000129422
13 *1324:B1 *265:23 0
14 *1324:B1 *536:46 9.82856e-06
15 *1325:A1 *1324:C1 6.65725e-05
16 *1325:A1 *265:23 4.82863e-05
17 *262:10 *1310:A 2.24314e-05
18 *262:10 *1317:C 2.54522e-05
19 *262:10 *1319:A2 2.45351e-05
20 *262:10 *535:129 8.40213e-05
21 *262:27 *1310:A 8.09021e-06
22 *262:27 *1321:B 4.94326e-05
23 *262:37 *1319:A2 3.09164e-05
24 *262:37 *265:8 1.44177e-05
25 *262:37 *265:23 0
26 *262:37 *536:46 0
27 *1313:A *1319:A1 1.12643e-05
28 *1313:A *262:10 8.49205e-05
29 *1313:B *1319:A1 6.03947e-06
30 *1318:B *262:37 3.26822e-05
31 *1319:C1 *262:10 1.91597e-05
32 *1320:A1 *262:10 5.53249e-06
33 *1320:A1 *262:27 0.000102708
34 *1320:A1 *262:37 4.43871e-06
35 *1320:A2 *262:27 2.8585e-06
36 *1320:A2 *262:37 2.56518e-05
37 *1558:D *262:37 0.000148779
38 *257:10 *262:10 2.7881e-05
*RES
1 *1317:X *262:10 7.425 
2 *262:10 *1319:A1 3.70875 
3 *262:10 *262:27 5.135 
4 *262:27 *262:37 6.935 
5 *262:37 *1325:A1 5.775 
6 *262:37 *1324:B1 6.36 
7 *262:27 *1320:B1 1.6 
*END

*D_NET *263 0.00136761
*CONN
*I *1320:C1 I *D sky130_fd_sc_hd__a211oi_2
*I *1319:A2 I *D sky130_fd_sc_hd__o211a_2
*I *1318:X O *D sky130_fd_sc_hd__and2b_2
*CAP
1 *1320:C1 0
2 *1319:A2 0.000115278
3 *1318:X 0.000127584
4 *263:12 0.000242862
5 *1319:A2 *535:129 0
6 *263:12 *478:19 4.91189e-05
7 *263:12 *536:46 0.000116165
8 *1313:A *1319:A2 3.70572e-05
9 *1313:B *1319:A2 0.00015326
10 *1319:C1 *1319:A2 4.82863e-05
11 *1320:A1 *1319:A2 4.07468e-05
12 *1320:A2 *1319:A2 0.000164679
13 *1558:D *263:12 0.000192125
14 *251:8 *263:12 2.49909e-05
15 *262:10 *1319:A2 2.45351e-05
16 *262:37 *1319:A2 3.09164e-05
*RES
1 *1318:X *263:12 8.81 
2 *263:12 *1319:A2 9.335 
3 *263:12 *1320:C1 1.6 
*END

*D_NET *264 0.00101712
*CONN
*I *1321:B I *D sky130_fd_sc_hd__nor3_2
*I *1319:X O *D sky130_fd_sc_hd__o211a_2
*CAP
1 *1321:B 0.000157532
2 *1319:X 0.000157532
3 *1321:B *1310:A 0.000334886
4 *1321:B *1321:C 4.99619e-05
5 *1321:B *265:8 7.8848e-05
6 *1321:B *265:23 1.02348e-05
7 *1321:B *586:50 2.05056e-05
8 *1313:A *1321:B 2.49909e-05
9 *1313:B *1321:B 4.66108e-05
10 *1320:A1 *1321:B 0
11 *256:12 *1321:B 8.65905e-05
12 *262:27 *1321:B 4.94326e-05
*RES
1 *1319:X *1321:B 12.375 
*END

*D_NET *265 0.00156714
*CONN
*I *1324:C1 I *D sky130_fd_sc_hd__a211o_2
*I *1325:A2 I *D sky130_fd_sc_hd__o211ai_2
*I *1321:C I *D sky130_fd_sc_hd__nor3_2
*I *1320:Y O *D sky130_fd_sc_hd__a211oi_2
*CAP
1 *1324:C1 8.81566e-05
2 *1325:A2 0
3 *1321:C 1.59138e-05
4 *1320:Y 8.40496e-05
5 *265:23 0.000240838
6 *265:8 0.000252644
7 *1321:C *586:50 8.65961e-05
8 *1324:C1 *1324:A2 4.82919e-05
9 *1324:C1 *1325:B1 2.51458e-05
10 *1324:C1 *1326:B 2.30292e-05
11 *1324:C1 *1326:C 0.000153217
12 *1324:C1 *269:12 2.63322e-05
13 *265:23 *540:77 0
14 *1320:A1 *265:8 3.09164e-05
15 *1321:A *265:23 1.7635e-05
16 *1321:B *1321:C 4.99619e-05
17 *1321:B *265:8 7.8848e-05
18 *1321:B *265:23 1.02348e-05
19 *1324:B1 *1324:C1 8.89259e-05
20 *1324:B1 *265:23 0
21 *1325:A1 *1324:C1 6.65725e-05
22 *1325:A1 *265:23 4.82863e-05
23 *1558:D *265:8 7.3664e-05
24 *1558:D *265:23 2.29518e-05
25 *256:12 *1321:C 2.0514e-05
26 *262:37 *265:8 1.44177e-05
27 *262:37 *265:23 0
*RES
1 *1320:Y *265:8 6 
2 *265:8 *1321:C 4.395 
3 *265:8 *265:23 4.595 
4 *265:23 *1325:A2 1.6 
5 *265:23 *1324:C1 4.945 
*END

*D_NET *266 0.00282919
*CONN
*I *1324:A1 I *D sky130_fd_sc_hd__a211o_2
*I *1325:B1 I *D sky130_fd_sc_hd__o211ai_2
*I *1329:B1 I *D sky130_fd_sc_hd__o211a_2
*I *1330:A1 I *D sky130_fd_sc_hd__a211oi_2
*I *1322:Y O *D sky130_fd_sc_hd__nand2_2
*CAP
1 *1324:A1 1.19549e-05
2 *1325:B1 0.000205415
3 *1329:B1 7.1807e-05
4 *1330:A1 4.35189e-05
5 *1322:Y 0.000172402
6 *266:38 0.000297165
7 *266:16 0.000227261
8 *266:10 0.000364131
9 *1324:A1 *1324:A2 9.53428e-06
10 *1325:B1 *1324:A2 2.7441e-05
11 *1329:B1 *1329:A1 9.52234e-05
12 *1329:B1 *1329:C1 0.00013521
13 *1329:B1 *1330:A2 4.9968e-05
14 *1330:A1 *1327:A 7.60965e-05
15 *1330:A1 *1331:B 0.000122325
16 *1330:A1 *270:10 0
17 *266:10 *1323:A 9.3062e-06
18 *266:10 *1331:B 6.02202e-05
19 *266:10 *1559:CLK 0.000116165
20 *266:10 *478:19 0.000134815
21 *266:16 *1327:A 5.57182e-05
22 *266:16 *1331:B 0.000127831
23 *266:16 *269:12 2.76482e-05
24 *266:16 *270:6 0.000122331
25 *266:16 *270:10 2.06762e-05
26 *266:38 *1324:A2 2.75229e-05
27 *266:38 *269:12 4.43682e-05
28 *1324:B1 *1324:A1 1.85674e-05
29 *1324:B1 *1325:B1 0.000129422
30 *1324:C1 *1325:B1 2.51458e-05
31 *256:12 *266:10 0
32 *256:21 *266:10 0
*RES
1 *1322:Y *266:10 9.785 
2 *266:10 *266:16 3.24 
3 *266:16 *1330:A1 3.1 
4 *266:16 *1329:B1 7.745 
5 *266:10 *266:38 1.485 
6 *266:38 *1325:B1 4.75 
7 *266:38 *1324:A1 1.96 
*END

*D_NET *267 0.00123109
*CONN
*I *1325:C1 I *D sky130_fd_sc_hd__o211ai_2
*I *1324:A2 I *D sky130_fd_sc_hd__a211o_2
*I *1323:X O *D sky130_fd_sc_hd__or2_2
*CAP
1 *1325:C1 0
2 *1324:A2 6.01384e-05
3 *1323:X 0.000333476
4 *267:10 0.000393614
5 *1324:A2 *269:12 0.000197264
6 *267:10 *1323:A 0
7 *267:10 *1326:C 0
8 *267:10 *478:19 0
9 *267:10 *536:46 0.000112123
10 *1324:A1 *1324:A2 9.53428e-06
11 *1324:B1 *1324:A2 2.16833e-05
12 *1324:C1 *1324:A2 4.82919e-05
13 *1325:B1 *1324:A2 2.7441e-05
14 *1559:D *267:10 0
15 *266:38 *1324:A2 2.75229e-05
*RES
1 *1323:X *267:10 11.06 
2 *267:10 *1324:A2 3.79 
3 *267:10 *1325:C1 1.6 
*END

*D_NET *268 0.00132213
*CONN
*I *1326:B I *D sky130_fd_sc_hd__and3_2
*I *1324:X O *D sky130_fd_sc_hd__a211o_2
*CAP
1 *1326:B 0.000376576
2 *1324:X 0.000376576
3 *1326:B *1326:C 0.000235559
4 *1326:B *269:12 0.000310394
5 *1324:C1 *1326:B 2.30292e-05
*RES
1 *1324:X *1326:B 12.66 
*END

*D_NET *269 0.0027848
*CONN
*I *1326:C I *D sky130_fd_sc_hd__and3_2
*I *1329:C1 I *D sky130_fd_sc_hd__o211a_2
*I *1330:A2 I *D sky130_fd_sc_hd__a211oi_2
*I *1325:Y O *D sky130_fd_sc_hd__o211ai_2
*CAP
1 *1326:C 0.000174521
2 *1329:C1 6.04318e-05
3 *1330:A2 2.5781e-05
4 *1325:Y 0
5 *269:12 0.000404255
6 *269:4 0.000492562
7 *1326:C *1621:A 1.83847e-05
8 *1329:C1 *1329:A2 4.82863e-05
9 *1329:C1 *1559:CLK 4.82863e-05
10 *1329:C1 *536:16 4.13249e-05
11 *1329:C1 *582:43 1.95374e-05
12 *1330:A2 *1329:A1 9.29751e-06
13 *1330:A2 *582:43 3.17398e-05
14 *269:12 *1331:B 0.000230435
15 *1324:A2 *269:12 0.000197264
16 *1324:C1 *1326:C 0.000153217
17 *1324:C1 *269:12 2.63322e-05
18 *1326:B *1326:C 0.000235559
19 *1326:B *269:12 0.000310394
20 *1329:B1 *1329:C1 0.00013521
21 *1329:B1 *1330:A2 4.9968e-05
22 *266:16 *269:12 2.76482e-05
23 *266:38 *269:12 4.43682e-05
24 *267:10 *1326:C 0
*RES
1 *1325:Y *269:4 1.6 
2 *269:4 *269:12 8.435 
3 *269:12 *1330:A2 4.47 
4 *269:12 *1329:C1 5.685 
5 *269:4 *1326:C 9.68 
*END

*D_NET *270 0.00448017
*CONN
*I *1329:A1 I *D sky130_fd_sc_hd__o211a_2
*I *1330:B1 I *D sky130_fd_sc_hd__a211oi_2
*I *1332:A1 I *D sky130_fd_sc_hd__o21a_2
*I *1334:A2 I *D sky130_fd_sc_hd__o31a_2
*I *1327:X O *D sky130_fd_sc_hd__and2_2
*CAP
1 *1329:A1 0.000129113
2 *1330:B1 0
3 *1332:A1 0.000162468
4 *1334:A2 0.000214941
5 *1327:X 7.81769e-05
6 *270:20 0.000666763
7 *270:10 0.000559808
8 *270:6 0.000477744
9 *1329:A1 *1559:CLK 1.12643e-05
10 *1329:A1 *536:16 3.78034e-06
11 *1329:A1 *582:43 0
12 *1332:A1 *1332:A2 0.000163012
13 *1332:A1 *1334:A3 9.37731e-05
14 *1332:A1 *1334:B1 5.19719e-05
15 *1334:A2 *1334:A1 0.000228752
16 *270:10 *1327:A 0.000275553
17 *270:10 *1330:C1 9.80032e-06
18 *270:10 *1331:C 0
19 *270:20 *1138:A 2.30292e-05
20 *270:20 *1330:C1 8.8266e-05
21 *270:20 *1331:B 6.65725e-05
22 *270:20 *1334:A1 0.000188957
23 *270:20 *1514:A 0
24 *270:20 *273:6 0.000163204
25 *1329:B1 *1329:A1 9.52234e-05
26 *1330:A1 *270:10 0
27 *1330:A2 *1329:A1 9.29751e-06
28 *1560:D *270:20 0
29 *1561:D *1334:A2 3.60024e-06
30 *1562:D *1334:A2 2.26771e-05
31 *134:19 *1332:A1 0.000181295
32 *134:23 *1332:A1 0.000116165
33 *134:23 *270:20 0
34 *134:33 *1334:A2 8.41703e-06
35 *256:12 *1329:A1 5.16418e-05
36 *256:21 *1329:A1 0.00019189
37 *266:16 *270:6 0.000122331
38 *266:16 *270:10 2.06762e-05
*RES
1 *1327:X *270:6 2.74 
2 *270:6 *270:10 3.825 
3 *270:10 *270:20 9.385 
4 *270:20 *1334:A2 8.39 
5 *270:20 *1332:A1 10.175 
6 *270:10 *1330:B1 1.6 
7 *270:6 *1329:A1 8.61875 
*END

*D_NET *271 0.00158652
*CONN
*I *1329:A2 I *D sky130_fd_sc_hd__o211a_2
*I *1330:C1 I *D sky130_fd_sc_hd__a211oi_2
*I *1328:Y O *D sky130_fd_sc_hd__nor2_2
*CAP
1 *1329:A2 0.00010228
2 *1330:C1 8.01909e-05
3 *1328:Y 4.04002e-05
4 *271:8 0.000222871
5 *1329:A2 *1559:CLK 9.96848e-05
6 *1329:A2 *479:8 2.49909e-05
7 *1329:A2 *536:16 8.88799e-05
8 *1330:C1 *1327:A 2.75229e-05
9 *1330:C1 *1328:A 5.4003e-05
10 *1330:C1 *1331:B 0.00016063
11 *1330:C1 *479:10 0.000114492
12 *1330:C1 *582:43 0.000158297
13 *271:8 *1328:A 0.00012904
14 *271:8 *582:43 0.000136884
15 *1329:C1 *1329:A2 4.82863e-05
16 *270:10 *1330:C1 9.80032e-06
17 *270:20 *1330:C1 8.8266e-05
*RES
1 *1328:Y *271:8 5.235 
2 *271:8 *1330:C1 6.975 
3 *271:8 *1329:A2 6.135 
*END

*D_NET *272 0.00170318
*CONN
*I *1331:B I *D sky130_fd_sc_hd__nor3_2
*I *1329:X O *D sky130_fd_sc_hd__o211a_2
*CAP
1 *1331:B 0.00039765
2 *1329:X 0.00039765
3 *1331:B *1327:A 2.32597e-05
4 *1331:B *1331:C 9.53428e-06
5 *1331:B *273:6 1.68092e-05
6 *1331:B *273:10 3.00381e-05
7 *1330:A1 *1331:B 0.000122325
8 *1330:C1 *1331:B 0.00016063
9 *256:21 *1331:B 6.02202e-05
10 *266:10 *1331:B 6.02202e-05
11 *266:16 *1331:B 0.000127831
12 *269:12 *1331:B 0.000230435
13 *270:20 *1331:B 6.65725e-05
*RES
1 *1329:X *1331:B 16.065 
*END

*D_NET *273 0.00206412
*CONN
*I *1331:C I *D sky130_fd_sc_hd__nor3_2
*I *1332:A2 I *D sky130_fd_sc_hd__o21a_2
*I *1334:A3 I *D sky130_fd_sc_hd__o31a_2
*I *1330:Y O *D sky130_fd_sc_hd__a211oi_2
*CAP
1 *1331:C 1.85694e-05
2 *1332:A2 0.000127334
3 *1334:A3 0.000125447
4 *1330:Y 9.25036e-05
5 *273:10 0.000404828
6 *273:6 0.00026312
7 *1332:A2 *1334:B1 8.68646e-05
8 *1332:A2 *426:184 5.7168e-05
9 *1334:A3 *1138:A 4.82863e-05
10 *1334:A3 *1334:A1 3.70355e-05
11 *1334:A3 *1334:B1 6.09545e-05
12 *1334:A3 *1337:A2 8.35068e-05
13 *1334:A3 *1514:B 4.43871e-06
14 *1334:A3 *480:12 0.000109786
15 *1331:B *1331:C 9.53428e-06
16 *1331:B *273:6 1.68092e-05
17 *1331:B *273:10 3.00381e-05
18 *1332:A1 *1332:A2 0.000163012
19 *1332:A1 *1334:A3 9.37731e-05
20 *1560:D *273:10 4.82919e-05
21 *1562:D *1334:A3 5.90239e-06
22 *123:14 *1334:A3 0
23 *134:23 *1334:A3 1.37135e-05
24 *270:10 *1331:C 0
25 *270:20 *273:6 0.000163204
*RES
1 *1330:Y *273:6 3.43 
2 *273:6 *273:10 4.175 
3 *273:10 *1334:A3 6.975 
4 *273:10 *1332:A2 6.645 
5 *273:6 *1331:C 1.96 
*END

*D_NET *274 0.00257275
*CONN
*I *1333:B I *D sky130_fd_sc_hd__nor2_2
*I *1337:B1 I *D sky130_fd_sc_hd__a21o_2
*I *1338:A I *D sky130_fd_sc_hd__nand3_2
*I *1332:X O *D sky130_fd_sc_hd__o21a_2
*CAP
1 *1333:B 0.000168195
2 *1337:B1 0.00010876
3 *1338:A 0.00013209
4 *1332:X 8.23183e-05
5 *274:10 0.000384505
6 *274:8 0.000394169
7 *1333:B *1339:C 0
8 *1333:B *426:184 2.0474e-05
9 *1337:B1 *1337:A1 5.06989e-05
10 *1337:B1 *1337:A2 4.66108e-05
11 *1338:A *279:8 4.77757e-05
12 *1338:A *426:136 0.000153263
13 *1338:A *426:165 0.00017555
14 *274:8 *426:184 0.000122801
15 *274:10 *426:165 0.000166925
16 *274:10 *426:184 0.000133046
17 *1297:B *1338:A 2.84864e-05
18 *1342:B1 *1338:A 4.66108e-05
19 *1561:D *274:10 9.21008e-05
20 *134:33 *1338:A 0.00019855
21 *134:33 *274:10 1.98177e-05
*RES
1 *1332:X *274:8 4.74 
2 *274:8 *274:10 3.675 
3 *274:10 *1338:A 7.98 
4 *274:10 *1337:B1 5.445 
5 *274:8 *1333:B 6.255 
*END

*D_NET *275 0.00179352
*CONN
*I *1334:B1 I *D sky130_fd_sc_hd__o31a_2
*I *1333:Y O *D sky130_fd_sc_hd__nor2_2
*CAP
1 *1334:B1 0.000302546
2 *1333:Y 0.000302546
3 *1334:B1 *1150:A 0.00024933
4 *1334:B1 *1334:A1 4.66108e-05
5 *1334:B1 *480:12 0.000109786
6 *1332:A1 *1334:B1 5.19719e-05
7 *1332:A2 *1334:B1 8.68646e-05
8 *1333:A *1334:B1 8.59965e-05
9 *1334:A3 *1334:B1 6.09545e-05
10 *1562:D *1334:B1 0.000339075
11 *134:19 *1334:B1 0.00015784
*RES
1 *1333:Y *1334:B1 15.54 
*END

*D_NET *276 0.00260775
*CONN
*I *1342:A1 I *D sky130_fd_sc_hd__a31o_2
*I *1341:A1 I *D sky130_fd_sc_hd__a21oi_2
*I *1337:A1 I *D sky130_fd_sc_hd__a21o_2
*I *1338:B I *D sky130_fd_sc_hd__nand3_2
*I *1335:Y O *D sky130_fd_sc_hd__nand2_2
*CAP
1 *1342:A1 0
2 *1341:A1 0
3 *1337:A1 0.00020848
4 *1338:B 0
5 *1335:Y 0.000470393
6 *276:29 0.000322236
7 *276:21 0.00035522
8 *276:12 0.000711857
9 *1337:A1 *1339:B 9.50342e-06
10 *1337:A1 *1339:C 0.000108791
11 *1337:A1 *279:18 1.89685e-05
12 *1337:A1 *426:165 0
13 *276:12 *1140:A 1.42449e-05
14 *276:12 *1337:A2 3.60024e-06
15 *276:21 *277:8 3.50152e-06
16 *276:21 *279:8 4.34612e-05
17 *276:21 *280:14 9.76407e-06
18 *276:29 *1341:B1 5.96203e-05
19 *276:29 *1343:A 7.00889e-06
20 *276:29 *279:18 3.89982e-05
21 *1297:B *276:12 5.33218e-05
22 *1337:B1 *1337:A1 5.06989e-05
23 *1342:B1 *276:21 0.000118081
*RES
1 *1335:Y *276:12 11.135 
2 *276:12 *1338:B 1.6 
3 *276:12 *276:21 3.135 
4 *276:21 *276:29 6.175 
5 *276:29 *1337:A1 9.95 
6 *276:29 *1341:A1 1.6 
7 *276:21 *1342:A1 1.6 
*END

*D_NET *277 0.0019754
*CONN
*I *1338:C I *D sky130_fd_sc_hd__nand3_2
*I *1337:A2 I *D sky130_fd_sc_hd__a21o_2
*I *1336:X O *D sky130_fd_sc_hd__or2_2
*CAP
1 *1338:C 0
2 *1337:A2 0.000464876
3 *1336:X 7.78461e-05
4 *277:8 0.000542722
5 *1337:A2 *1334:A1 3.95055e-05
6 *1337:A2 *1514:B 0
7 *277:8 *1139:A 7.82271e-05
8 *277:8 *280:14 0.000313337
9 *277:8 *481:21 2.05056e-05
10 *1334:A3 *1337:A2 8.35068e-05
11 *1336:B *277:8 0.000124007
12 *1337:B1 *1337:A2 4.66108e-05
13 *1562:D *1337:A2 0.000177151
14 *134:33 *1337:A2 0
15 *276:12 *1337:A2 3.60024e-06
16 *276:21 *277:8 3.50152e-06
*RES
1 *1336:X *277:8 4.825 
2 *277:8 *1337:A2 13.415 
3 *277:8 *1338:C 1.6 
*END

*D_NET *278 0.000612627
*CONN
*I *1339:B I *D sky130_fd_sc_hd__and3_2
*I *1337:X O *D sky130_fd_sc_hd__a21o_2
*CAP
1 *1339:B 0.000212862
2 *1337:X 0.000212862
3 *1339:B *1339:A 2.38925e-05
4 *1339:B *1339:C 0.000153507
5 *1339:B *426:165 0
6 *1339:B *426:184 0
7 *1337:A1 *1339:B 9.50342e-06
*RES
1 *1337:X *1339:B 11.16 
*END

*D_NET *279 0.00234609
*CONN
*I *1342:A2 I *D sky130_fd_sc_hd__a31o_2
*I *1339:C I *D sky130_fd_sc_hd__and3_2
*I *1341:A2 I *D sky130_fd_sc_hd__a21oi_2
*I *1338:Y O *D sky130_fd_sc_hd__nand3_2
*CAP
1 *1342:A2 0
2 *1339:C 0.000433224
3 *1341:A2 0
4 *1338:Y 0.000115243
5 *279:18 0.000588909
6 *279:8 0.000270928
7 *1339:C *1339:A 8.69583e-05
8 *1339:C *426:184 0
9 *279:8 *1342:A3 0.000155486
10 *279:8 *280:14 0.000156758
11 *279:18 *1342:A3 1.27575e-05
12 *279:18 *1343:A 7.23533e-05
13 *279:18 *1343:B 2.65814e-06
14 *1333:B *1339:C 0
15 *1337:A1 *1339:C 0.000108791
16 *1337:A1 *279:18 1.89685e-05
17 *1338:A *279:8 4.77757e-05
18 *1339:B *1339:C 0.000153507
19 *1342:B1 *279:8 3.93101e-05
20 *276:21 *279:8 4.34612e-05
21 *276:29 *279:18 3.89982e-05
*RES
1 *1338:Y *279:8 4.99 
2 *279:8 *279:18 4.985 
3 *279:18 *1341:A2 3.6 
4 *279:18 *1339:C 11.82 
5 *279:8 *1342:A2 1.6 
*END

*D_NET *280 0.00318763
*CONN
*I *1341:B1 I *D sky130_fd_sc_hd__a21oi_2
*I *1342:A3 I *D sky130_fd_sc_hd__a31o_2
*I *1340:Y O *D sky130_fd_sc_hd__xnor2_2
*CAP
1 *1341:B1 0.00010022
2 *1342:A3 0.000114591
3 *1340:Y 0.000616365
4 *280:14 0.000831176
5 *1341:B1 *1343:A 0
6 *1341:B1 *426:136 0.00019683
7 *280:14 *1523:B 0.000120655
8 *280:14 *426:122 8.26527e-05
9 *280:14 *481:21 2.8185e-05
10 *1340:A *280:14 4.82863e-05
11 *1517:B2 *280:14 8.49205e-05
12 *1522:B2 *280:14 8.53113e-06
13 *123:14 *280:14 0.00015609
14 *125:10 *280:14 9.14049e-05
15 *276:21 *280:14 9.76407e-06
16 *276:29 *1341:B1 5.96203e-05
17 *277:8 *280:14 0.000313337
18 *279:8 *1342:A3 0.000155486
19 *279:8 *280:14 0.000156758
20 *279:18 *1342:A3 1.27575e-05
*RES
1 *1340:Y *280:14 17.51 
2 *280:14 *1342:A3 3.7 
3 *280:14 *1341:B1 8 
*END

*D_NET *281 0.000794965
*CONN
*I *1343:A I *D sky130_fd_sc_hd__nor2_2
*I *1341:Y O *D sky130_fd_sc_hd__a21oi_2
*CAP
1 *1343:A 0.000261181
2 *1341:Y 0.000261181
3 *1343:A *1343:B 0.000162325
4 *1343:A *426:142 3.09164e-05
5 *1341:B1 *1343:A 0
6 *276:29 *1343:A 7.00889e-06
7 *279:18 *1343:A 7.23533e-05
*RES
1 *1341:Y *1343:A 11.67 
*END

*D_NET *282 0.000408867
*CONN
*I *1343:B I *D sky130_fd_sc_hd__nor2_2
*I *1342:X O *D sky130_fd_sc_hd__a31o_2
*CAP
1 *1343:B 0.000121942
2 *1342:X 0.000121942
3 *1343:B *426:136 0
4 *1297:B *1343:B 0
5 *1343:A *1343:B 0.000162325
6 *279:18 *1343:B 2.65814e-06
*RES
1 *1342:X *1343:B 9.54 
*END

*D_NET *283 0.00382668
*CONN
*I *1356:B I *D sky130_fd_sc_hd__nand2_2
*I *1345:B I *D sky130_fd_sc_hd__or2_2
*I *1355:A1 I *D sky130_fd_sc_hd__a21oi_2
*I *1344:X O *D sky130_fd_sc_hd__or2_2
*CAP
1 *1356:B 3.37164e-05
2 *1345:B 0.000114897
3 *1355:A1 9.86382e-05
4 *1344:X 0.000524517
5 *283:18 0.000505807
6 *283:14 0.000850506
7 *1345:B *1345:A 9.30787e-05
8 *1345:B *1353:B 3.60648e-05
9 *1345:B *1433:A 5.55344e-05
10 *1345:B *1480:A2 7.22329e-05
11 *1345:B *284:6 0.000123225
12 *1345:B *559:31 4.36912e-05
13 *1355:A1 *1433:A 8.42239e-05
14 *1355:A1 *1565:CLK 3.09164e-05
15 *1355:A1 *425:96 0.000266618
16 *1355:A1 *559:31 9.3062e-06
17 *1356:B *1356:A 9.13949e-06
18 *283:14 *1344:B 8.57321e-05
19 *283:14 *1356:A 1.9872e-05
20 *283:14 *1460:A1 0
21 *283:14 *1479:B 3.1835e-05
22 *283:14 *546:6 0.000277223
23 *283:18 *1354:B 0.000121019
24 *283:18 *1355:A2 4.75959e-05
25 *283:18 *1356:A 2.93517e-05
26 *283:18 *454:6 1.74678e-05
27 *283:18 *454:8 2.47313e-05
28 *283:18 *454:68 1.06688e-05
29 *1179:B *1355:A1 0.000158851
30 *1564:D *283:14 5.02217e-05
*RES
1 *1344:X *283:14 13.145 
2 *283:14 *283:18 6.59 
3 *283:18 *1355:A1 7.275 
4 *283:18 *1345:B 7.14 
5 *283:14 *1356:B 2.215 
*END

*D_NET *284 0.0033276
*CONN
*I *1359:A2 I *D sky130_fd_sc_hd__a21o_2
*I *1357:A1 I *D sky130_fd_sc_hd__a21oi_2
*I *1346:B I *D sky130_fd_sc_hd__or2_2
*I *1345:X O *D sky130_fd_sc_hd__or2_2
*CAP
1 *1359:A2 0.000487327
2 *1357:A1 0.000120701
3 *1346:B 8.71539e-05
4 *1345:X 6.38272e-05
5 *284:21 0.000692846
6 *284:6 0.000235799
7 *1346:B *1346:A 8.57024e-05
8 *1346:B *1480:A2 5.71564e-05
9 *1346:B *285:10 9.60524e-05
10 *1357:A1 *454:14 0.000252282
11 *1357:A1 *582:81 0
12 *1359:A2 *1359:B1 0.000460265
13 *1359:A2 *1360:B 9.50342e-06
14 *1359:A2 *425:83 4.40325e-06
15 *1359:A2 *425:96 1.46908e-05
16 *1359:A2 *455:18 2.78732e-05
17 *1359:A2 *537:10 0
18 *284:6 *1480:A2 7.85931e-05
19 *284:6 *368:10 0.000238919
20 *284:21 *1441:A 1.92979e-05
21 *284:21 *1441:B 3.09164e-05
22 *284:21 *1480:A2 1.9557e-05
23 *284:21 *454:14 8.53113e-06
24 *284:21 *559:31 0
25 *284:21 *582:81 0
26 *1345:B *284:6 0.000123225
27 *1566:D *1359:A2 2.97674e-05
28 *98:28 *1346:B 4.35348e-05
29 *98:28 *284:6 3.96737e-05
*RES
1 *1345:X *284:6 4.465 
2 *284:6 *1346:B 4.24 
3 *284:6 *284:21 3.635 
4 *284:21 *1357:A1 6.51 
5 *284:21 *1359:A2 14.185 
*END

*D_NET *285 0.00329419
*CONN
*I *1358:B I *D sky130_fd_sc_hd__nand2_2
*I *1347:B I *D sky130_fd_sc_hd__or2_2
*I *1361:A2 I *D sky130_fd_sc_hd__a21o_2
*I *1346:X O *D sky130_fd_sc_hd__or2_2
*CAP
1 *1358:B 0
2 *1347:B 0.000262844
3 *1361:A2 1.81117e-05
4 *1346:X 0.000177056
5 *285:16 0.000503584
6 *285:10 0.000399685
7 *1347:B *1361:A1 1.34594e-05
8 *1347:B *1363:B1 0.000183722
9 *1347:B *425:64 4.77719e-05
10 *1347:B *425:83 0.000158982
11 *1347:B *455:18 0
12 *1347:B *456:12 2.03578e-05
13 *1347:B *456:23 0.000381082
14 *1347:B *456:53 1.34361e-05
15 *1347:B *537:24 5.74791e-05
16 *1361:A2 *1361:A1 0.00012657
17 *285:10 *1346:A 2.96426e-05
18 *285:10 *1358:A 0.00011379
19 *285:10 *1622:A 0
20 *285:10 *537:10 0
21 *285:10 *582:81 2.97192e-05
22 *285:16 *1358:A 9.50342e-06
23 *285:16 *1361:A1 0.000265565
24 *285:16 *456:12 5.05437e-05
25 *285:16 *456:23 9.80943e-06
26 *285:16 *537:10 0
27 *285:16 *537:24 0
28 *285:16 *582:81 9.07342e-05
29 *1346:B *285:10 9.60524e-05
30 *98:28 *285:10 0.000234685
*RES
1 *1346:X *285:10 8.175 
2 *285:10 *285:16 7.175 
3 *285:16 *1361:A2 2.74 
4 *285:16 *1347:B 16.95 
5 *285:10 *1358:B 3.6 
*END

*D_NET *286 0.00392582
*CONN
*I *1360:B I *D sky130_fd_sc_hd__nand2_2
*I *1362:B I *D sky130_fd_sc_hd__nand2_2
*I *1348:B I *D sky130_fd_sc_hd__or2_2
*I *1347:X O *D sky130_fd_sc_hd__or2_2
*CAP
1 *1360:B 0.000143076
2 *1362:B 0
3 *1348:B 0.000169718
4 *1347:X 0.000383941
5 *286:16 0.000410584
6 *1348:B *1189:A_N 8.65961e-05
7 *1348:B *1189:C 7.85466e-05
8 *1348:B *1668:addr[3] 0.000234669
9 *1348:B *452:22 0.000178321
10 *1348:B *583:76 0.000111285
11 *1360:B *1359:B1 8.65961e-05
12 *1360:B *1361:B1 0.00019637
13 *1360:B *425:83 0.000396209
14 *1360:B *455:18 1.53032e-05
15 *286:16 *1363:A1 0
16 *286:16 *1363:B1 0.000136276
17 *286:16 *1568:CLK 0.000137571
18 *286:16 *425:83 0.00015909
19 *286:16 *456:29 0.000183043
20 *286:16 *456:53 8.12265e-05
21 *286:16 *532:88 0.000353198
22 *1190:B *1348:B 0.000196376
23 *1213:B *1348:B 0.000178321
24 *1359:A2 *1360:B 9.50342e-06
*RES
1 *1347:X *286:16 12.785 
2 *286:16 *1348:B 12.005 
3 *286:16 *1362:B 1.6 
4 *1347:X *1360:B 11.475 
*END

*D_NET *287 0.00308732
*CONN
*I *1349:B I *D sky130_fd_sc_hd__or2_2
*I *1364:A2 I *D sky130_fd_sc_hd__a21o_2
*I *1363:A1 I *D sky130_fd_sc_hd__a21oi_2
*I *1348:X O *D sky130_fd_sc_hd__or2_2
*CAP
1 *1349:B 0.00010892
2 *1364:A2 0.000220595
3 *1363:A1 3.97596e-05
4 *1348:X 0.000120651
5 *287:21 0.000564785
6 *287:8 0.00039568
7 *1349:B *1618:A 0.000190102
8 *1349:B *288:10 0.000149094
9 *1349:B *288:38 6.03549e-05
10 *1349:B *425:58 3.61388e-06
11 *1349:B *459:10 7.9642e-06
12 *1363:A1 *1363:A2 6.13455e-05
13 *1363:A1 *532:88 8.00102e-05
14 *1364:A2 *1350:A 4.82863e-05
15 *1364:A2 *1350:C 0.00015806
16 *1364:A2 *1567:CLK 7.61024e-05
17 *1364:A2 *289:12 0.000123225
18 *1364:A2 *300:22 6.03412e-05
19 *287:8 *1188:A2 0
20 *287:8 *1363:A2 5.39961e-05
21 *287:8 *452:22 0
22 *287:8 *457:27 1.71013e-05
23 *287:8 *457:29 8.97486e-05
24 *287:21 *1351:B 0.000112823
25 *287:21 *288:10 0.000147127
26 *287:21 *425:58 0.000106177
27 *287:21 *452:22 0
28 *287:21 *457:27 4.39001e-05
29 *287:21 *532:88 0
30 *1569:D *287:21 4.75576e-05
31 *286:16 *1363:A1 0
*RES
1 *1348:X *287:8 5.745 
2 *287:8 *1363:A1 4.755 
3 *287:8 *287:21 5.46 
4 *287:21 *1364:A2 8.31 
5 *287:21 *1349:B 6.255 
*END

*D_NET *288 0.00691228
*CONN
*I *1366:B I *D sky130_fd_sc_hd__nand2_2
*I *1365:B I *D sky130_fd_sc_hd__or2_2
*I *1352:A1 I *D sky130_fd_sc_hd__o21ai_2
*I *1351:B I *D sky130_fd_sc_hd__nand2_2
*I *1349:X O *D sky130_fd_sc_hd__or2_2
*CAP
1 *1366:B 0.000244925
2 *1365:B 0.000129171
3 *1352:A1 0
4 *1351:B 0.000487137
5 *1349:X 6.21999e-05
6 *288:38 0.000646819
7 *288:10 0.000614579
8 *288:8 0.000462364
9 *1351:B *1192:B 0.000163204
10 *1351:B *1364:B1 0.000272978
11 *1351:B *1620:A 0.000119631
12 *1351:B *378:42 4.08913e-05
13 *1351:B *425:64 6.75602e-05
14 *1351:B *452:22 0
15 *1351:B *535:8 0.000495107
16 *1351:B *537:38 6.27029e-05
17 *1351:B *537:56 2.29937e-05
18 *1365:B *1367:A2 4.41506e-05
19 *1365:B *1379:A2 0.000173258
20 *1365:B *1615:A 8.40213e-05
21 *1365:B *297:14 3.96737e-05
22 *1366:B *1366:A 0.000274588
23 *1366:B *1367:A2 0.000357694
24 *1366:B *1379:A2 0.000326441
25 *1366:B *528:10 0.000122331
26 *288:10 *1349:A 0.000233481
27 *288:10 *289:12 2.42236e-05
28 *288:10 *452:22 0
29 *288:38 *1349:A 6.81984e-05
30 *288:38 *1436:B1 0
31 *288:38 *1591:CLK 0.000181015
32 *288:38 *300:22 1.14559e-05
33 *288:38 *424:20 0.000200419
34 *288:38 *459:10 5.39181e-05
35 *288:38 *585:145 0.000241863
36 *1213:D *288:8 8.40269e-05
37 *1349:B *288:10 0.000149094
38 *1349:B *288:38 6.03549e-05
39 *1590:D *288:38 2.98594e-05
40 *287:21 *1351:B 0.000112823
41 *287:21 *288:10 0.000147127
*RES
1 *1349:X *288:8 4.395 
2 *288:8 *288:10 3.675 
3 *288:10 *1351:B 15.135 
4 *288:10 *1352:A1 3.6 
5 *288:8 *288:38 8.99 
6 *288:38 *1365:B 4.825 
7 *288:38 *1366:B 9.685 
*END

*D_NET *289 0.00138708
*CONN
*I *1380:B I *D sky130_fd_sc_hd__and2_2
*I *1352:A2 I *D sky130_fd_sc_hd__o21ai_2
*I *1350:X O *D sky130_fd_sc_hd__or4_2
*CAP
1 *1380:B 0.000185972
2 *1352:A2 0
3 *1350:X 0.000236793
4 *289:12 0.000422764
5 *1380:B *1352:B1 9.188e-05
6 *1380:B *537:24 1.47347e-05
7 *1380:B *569:62 9.64441e-05
8 *289:12 *1349:A 7.06865e-05
9 *289:12 *1567:CLK 5.74791e-05
10 *289:12 *452:22 6.28765e-05
11 *1364:A2 *289:12 0.000123225
12 *288:10 *289:12 2.42236e-05
*RES
1 *1350:X *289:12 9.155 
2 *289:12 *1352:A2 1.6 
3 *289:12 *1380:B 4.84 
*END

*D_NET *290 0.00139464
*CONN
*I *1364:B1 I *D sky130_fd_sc_hd__a21o_2
*I *1351:Y O *D sky130_fd_sc_hd__nand2_2
*CAP
1 *1364:B1 0.000202508
2 *1351:Y 0.000202508
3 *1364:B1 *458:8 0
4 *1364:B1 *532:40 0.000328187
5 *1364:B1 *533:46 0
6 *1364:B1 *537:38 0.000388457
7 *1351:B *1364:B1 0.000272978
*RES
1 *1351:Y *1364:B1 13.65 
*END

*D_NET *291 0.0070945
*CONN
*I *1667:A I *D sky130_fd_sc_hd__clkbuf_2
*I *1367:B1 I *D sky130_fd_sc_hd__a21oi_2
*I *1374:B1 I *D sky130_fd_sc_hd__a21oi_2
*I *1369:B1 I *D sky130_fd_sc_hd__a21o_2
*I *1352:Y O *D sky130_fd_sc_hd__o21ai_2
*CAP
1 *1667:A 0.000266307
2 *1367:B1 0
3 *1374:B1 0.000100248
4 *1369:B1 0.000813258
5 *1352:Y 0.000140211
6 *291:31 0.000223625
7 *291:16 0.00109751
8 *291:10 0.000567397
9 *1369:B1 *1369:A2 0.000344933
10 *1369:B1 *452:22 0.000342784
11 *1374:B1 *1367:A2 2.05056e-05
12 *1374:B1 *297:14 9.87013e-05
13 *1374:B1 *297:22 0.00015826
14 *1667:A *1363:B1 0.0003411
15 *1667:A *1436:B1 0.000268554
16 *291:10 *1525:GATE 6.53543e-05
17 *291:10 *452:22 0.000322771
18 *291:16 *1429:A 3.28682e-05
19 *291:16 *1436:B1 5.83121e-06
20 *291:16 *1619:A 0.00015639
21 *291:16 *425:54 2.68107e-05
22 *291:16 *452:22 0.000122706
23 *291:16 *534:14 8.53113e-06
24 *291:31 *1429:A 0.000144277
25 *291:31 *534:14 0.000280259
26 *1213:B *291:10 0.00018877
27 *1213:D *1369:B1 3.6759e-05
28 *1213:D *1667:A 0.000181781
29 *1213:D *291:16 0.000413349
30 *1571:D *1374:B1 4.82863e-05
31 *1572:D *1369:B1 4.35797e-05
32 *1577:D *1374:B1 0.000232782
*RES
1 *1352:Y *291:10 9.53 
2 *291:10 *291:16 6.77 
3 *291:16 *1369:B1 13.98 
4 *291:16 *291:31 5.42 
5 *291:31 *1374:B1 5.29 
6 *291:31 *1367:B1 1.6 
7 *291:10 *1667:A 8.65 
*END

*D_NET *292 0.00155924
*CONN
*I *1355:A2 I *D sky130_fd_sc_hd__a21oi_2
*I *1354:Y O *D sky130_fd_sc_hd__nand2_2
*CAP
1 *1355:A2 0.000407085
2 *1354:Y 0.000407085
3 *1355:A2 *1353:B 0
4 *1355:A2 *1354:A 9.5433e-05
5 *1355:A2 *1355:B1 0
6 *1355:A2 *1357:A2 0
7 *1355:A2 *1435:B2 0
8 *1355:A2 *1564:CLK 0.000350189
9 *1355:A2 *371:10 0
10 *1355:A2 *453:36 0
11 *1355:A2 *532:100 0.000219404
12 *1179:A *1355:A2 4.9253e-06
13 *1565:D *1355:A2 2.75229e-05
14 *283:18 *1355:A2 4.75959e-05
*RES
1 *1354:Y *1355:A2 15.435 
*END

*D_NET *293 0.00137497
*CONN
*I *1357:A2 I *D sky130_fd_sc_hd__a21oi_2
*I *1356:Y O *D sky130_fd_sc_hd__nand2_2
*CAP
1 *1357:A2 0.000397577
2 *1356:Y 0.000397577
3 *1357:A2 *1353:A 2.92612e-05
4 *1357:A2 *1354:A 0.000130887
5 *1357:A2 *1354:B 3.6227e-05
6 *1357:A2 *1433:A 0.00012182
7 *1357:A2 *1435:B2 4.8854e-05
8 *1357:A2 *1444:A 6.41593e-05
9 *1357:A2 *1638:A 4.89295e-05
10 *1357:A2 *559:41 9.96764e-05
11 *1355:A2 *1357:A2 0
*RES
1 *1356:Y *1357:A2 15.0675 
*END

*D_NET *294 0.00117813
*CONN
*I *1359:B1 I *D sky130_fd_sc_hd__a21o_2
*I *1358:Y O *D sky130_fd_sc_hd__nand2_2
*CAP
1 *1359:B1 0.000157767
2 *1358:Y 0.000157767
3 *1359:B1 *1359:A1 3.74161e-05
4 *1359:B1 *425:83 0.000231706
5 *1359:B1 *455:14 4.66108e-05
6 *1359:A2 *1359:B1 0.000460265
7 *1360:B *1359:B1 8.65961e-05
*RES
1 *1358:Y *1359:B1 8.84 
*END

*D_NET *295 0.000989086
*CONN
*I *1361:B1 I *D sky130_fd_sc_hd__a21o_2
*I *1360:Y O *D sky130_fd_sc_hd__nand2_2
*CAP
1 *1361:B1 0.000269347
2 *1360:Y 0.000269347
3 *1361:B1 *1436:B1 0.000134509
4 *1361:B1 *425:83 6.90876e-05
5 *1213:D *1361:B1 5.04256e-05
6 *1360:B *1361:B1 0.00019637
*RES
1 *1360:Y *1361:B1 11.7 
*END

*D_NET *296 0.000706915
*CONN
*I *1363:A2 I *D sky130_fd_sc_hd__a21oi_2
*I *1362:Y O *D sky130_fd_sc_hd__nand2_2
*CAP
1 *1363:A2 0.00024988
2 *1362:Y 0.00024988
3 *1363:A2 *1363:B1 4.41506e-05
4 *1363:A2 *452:22 0
5 *1363:A2 *532:88 4.7662e-05
6 *1363:A1 *1363:A2 6.13455e-05
7 *287:8 *1363:A2 5.39961e-05
*RES
1 *1362:Y *1363:A2 10.785 
*END

*D_NET *297 0.00478549
*CONN
*I *1367:A1 I *D sky130_fd_sc_hd__a21oi_2
*I *1368:C I *D sky130_fd_sc_hd__or3_2
*I *1372:B I *D sky130_fd_sc_hd__nand2_2
*I *1373:B1 I *D sky130_fd_sc_hd__a211o_2
*I *1365:X O *D sky130_fd_sc_hd__or2_2
*CAP
1 *1367:A1 0
2 *1368:C 4.06676e-05
3 *1372:B 0.000254542
4 *1373:B1 1.33415e-05
5 *1365:X 0.000158037
6 *297:45 0.00106024
7 *297:22 0.00100032
8 *297:14 0.000379987
9 *1368:C *585:145 4.88478e-05
10 *1372:B *1369:A1 9.85186e-05
11 *1372:B *1572:CLK 0.000112907
12 *1372:B *460:61 0
13 *1373:B1 *1373:A1 3.09774e-05
14 *1373:B1 *460:22 3.21081e-06
15 *297:14 *1367:A2 0.000119756
16 *297:14 *1429:A 1.7635e-05
17 *297:14 *1615:A 4.82863e-05
18 *297:14 *460:10 0
19 *297:14 *534:14 0.000129929
20 *297:14 *542:8 5.14352e-05
21 *297:22 *1367:A2 7.79666e-05
22 *297:22 *1374:A2 1.19928e-05
23 *297:22 *1376:B1 4.99619e-05
24 *297:22 *460:22 0.000169759
25 *297:45 *1368:A 1.88602e-05
26 *297:45 *1373:A1 2.28017e-05
27 *297:45 *1377:B 0
28 *297:45 *1378:A2 0
29 *297:45 *1429:A 0.000136386
30 *297:45 *1572:CLK 2.91921e-05
31 *297:45 *425:10 0.000101586
32 *297:45 *433:93 0
33 *297:45 *461:28 0.000100111
34 *1213:B *1372:B 0
35 *1365:B *297:14 3.96737e-05
36 *1374:B1 *297:14 9.87013e-05
37 *1374:B1 *297:22 0.00015826
38 *1375:C *297:14 2.97004e-06
39 *1376:A1 *297:45 4.9669e-05
40 *1526:GATE *297:45 0
41 *1577:D *297:22 9.27255e-06
42 *1577:D *297:45 0.000101872
43 *134:93 *297:45 3.78122e-05
*RES
1 *1365:X *297:14 9.515 
2 *297:14 *297:22 5.325 
3 *297:22 *1373:B1 1.96 
4 *297:22 *297:45 9.91547 
5 *297:45 *1372:B 7.785 
6 *297:45 *1368:C 4.395 
7 *297:14 *1367:A1 1.6 
*END

*D_NET *298 0.00302189
*CONN
*I *1367:A2 I *D sky130_fd_sc_hd__a21oi_2
*I *1366:Y O *D sky130_fd_sc_hd__nand2_2
*CAP
1 *1367:A2 0.000838409
2 *1366:Y 0.000838409
3 *1367:A2 *1366:A 9.46525e-06
4 *1367:A2 *1494:A 9.57555e-05
5 *1367:A2 *1591:CLK 0.000115888
6 *1367:A2 *1661:A 6.97202e-05
7 *1367:A2 *300:22 1.15688e-05
8 *1367:A2 *585:145 0.000414254
9 *1365:B *1367:A2 4.41506e-05
10 *1366:B *1367:A2 0.000357694
11 *1374:B1 *1367:A2 2.05056e-05
12 *1571:D *1367:A2 8.34281e-06
13 *297:14 *1367:A2 0.000119756
14 *297:22 *1367:A2 7.79666e-05
*RES
1 *1366:Y *1367:A2 22.395 
*END

*D_NET *299 0.00153133
*CONN
*I *1378:A2 I *D sky130_fd_sc_hd__o211a_2
*I *1630:A I *D sky130_fd_sc_hd__dlygate4sd3_1
*I *1368:X O *D sky130_fd_sc_hd__or3_2
*CAP
1 *1378:A2 0.00024371
2 *1630:A 0
3 *1368:X 0.000157445
4 *299:8 0.000401155
5 *1378:A2 *1373:A1 1.82789e-05
6 *1378:A2 *1377:B 6.60257e-06
7 *1378:A2 *1378:B1 8.7152e-06
8 *1378:A2 *1570:CLK 2.82846e-05
9 *1378:A2 *425:10 0
10 *1378:A2 *425:27 0.000121817
11 *1378:A2 *425:42 3.57349e-05
12 *1378:A2 *460:51 2.53191e-06
13 *299:8 *425:27 5.7594e-05
14 *1578:D *1378:A2 0.000337918
15 *173:43 *1378:A2 0.000111547
16 *297:45 *1378:A2 0
*RES
1 *1368:X *299:8 3.7 
2 *299:8 *1630:A 1.6 
3 *299:8 *1378:A2 11.27 
*END

*D_NET *300 0.0162148
*CONN
*I *1512:B I *D sky130_fd_sc_hd__and2_2
*I *1615:A I *D sky130_fd_sc_hd__clkdlybuf4s25_1
*I *1370:X O *D sky130_fd_sc_hd__o21a_2
*CAP
1 *1512:B 0.00333675
2 *1615:A 7.58245e-05
3 *1370:X 0.00124217
4 *300:22 0.00465474
5 *1512:B *1366:A 0.000628745
6 *1512:B *1428:B 9.87777e-06
7 *1512:B *1436:B2 0
8 *1512:B *1494:A 3.72952e-05
9 *1512:B *1501:B 0
10 *1512:B *1502:B 8.09021e-06
11 *1512:B *1503:B 0
12 *1512:B *1504:A2 2.67275e-05
13 *1512:B *1506:B 5.83373e-05
14 *1512:B *1508:A2 0
15 *1512:B *1510:B 0.000178314
16 *1512:B *1511:A1 0.000112123
17 *1512:B *1512:A 5.83121e-06
18 *1512:B *1668:addr[5] 0
19 *1512:B *378:57 0
20 *1512:B *483:14 5.06645e-05
21 *1512:B *483:32 0.000260708
22 *1512:B *483:80 8.09021e-06
23 *1512:B *483:99 1.73877e-05
24 *1512:B *491:21 3.50033e-05
25 *1512:B *492:8 0.000129047
26 *1512:B *497:16 1.40542e-05
27 *1512:B *534:33 1.68169e-05
28 *300:22 *1153:A 0.00014259
29 *300:22 *1213:C 3.19917e-05
30 *300:22 *1350:A 2.75145e-05
31 *300:22 *1350:B 0.000119756
32 *300:22 *1350:C 0.00015639
33 *300:22 *1369:A1 2.01565e-05
34 *300:22 *1374:A1 0.000497356
35 *300:22 *1382:B 9.14049e-05
36 *300:22 *1383:C 6.77501e-05
37 *300:22 *1494:A 0.00011381
38 *300:22 *1567:CLK 4.82919e-05
39 *300:22 *1591:CLK 6.80757e-06
40 *300:22 *1618:A 0.000148488
41 *300:22 *309:43 4.82863e-05
42 *300:22 *424:20 2.07977e-05
43 *300:22 *425:54 0.000271028
44 *300:22 *459:10 0.000101821
45 *300:22 *460:51 1.52352e-05
46 *300:22 *460:61 0.000191122
47 *300:22 *460:65 0.000160635
48 *300:22 *532:16 0.000124895
49 *300:22 *532:18 1.46744e-05
50 *300:22 *533:46 4.66108e-05
51 *300:22 *534:14 0.000194649
52 *300:22 *534:33 4.55864e-06
53 *1213:B *300:22 0.00114507
54 *1364:A2 *300:22 6.03412e-05
55 *1365:B *1615:A 8.40213e-05
56 *1367:A2 *300:22 1.15688e-05
57 *1370:A2 *300:22 0.000124895
58 *1423:A1 *300:22 1.17409e-05
59 *1571:D *300:22 0.000157325
60 *1575:D *1512:B 9.96679e-05
61 *1580:D *1512:B 0.000887226
62 *213:8 *300:22 0
63 *288:38 *300:22 1.14559e-05
64 *297:14 *1615:A 4.82863e-05
*RES
1 *1370:X *300:22 38.29 
2 *300:22 *1615:A 4.845 
3 *300:22 *1512:B 19.9095 
*END

*D_NET *301 0.00215083
*CONN
*I *1374:A1 I *D sky130_fd_sc_hd__a21oi_2
*I *1372:Y O *D sky130_fd_sc_hd__nand2_2
*CAP
1 *1374:A1 0.000397275
2 *1372:Y 0.000397275
3 *1374:A1 *1350:C 0
4 *1374:A1 *1369:A1 8.64421e-05
5 *1374:A1 *1617:A 4.6266e-05
6 *1374:A1 *452:8 3.20568e-05
7 *1374:A1 *460:22 8.69417e-06
8 *1374:A1 *461:28 0.000261461
9 *1374:A1 *532:18 0.000424006
10 *300:22 *1374:A1 0.000497356
*RES
1 *1372:Y *1374:A1 18.015 
*END

*D_NET *302 0.00226332
*CONN
*I *1377:B I *D sky130_fd_sc_hd__nand2_2
*I *1374:A2 I *D sky130_fd_sc_hd__a21oi_2
*I *1373:X O *D sky130_fd_sc_hd__a211o_2
*CAP
1 *1377:B 0.000469371
2 *1374:A2 0.000212102
3 *1373:X 0.000681473
4 *1374:A2 *1373:A1 2.06046e-05
5 *1374:A2 *460:22 4.27145e-05
6 *1377:B *1373:A1 0.000135896
7 *1377:B *1377:A 5.29016e-05
8 *1377:B *1378:B1 6.29037e-05
9 *1377:B *1379:A2 3.54966e-05
10 *1377:B *1425:B 0
11 *1377:B *433:83 0.00037674
12 *1377:B *438:14 0
13 *1378:A2 *1377:B 6.60257e-06
14 *1379:A1 *1377:B 1.92979e-05
15 *1577:D *1374:A2 7.67606e-05
16 *173:33 *1374:A2 3.72916e-05
17 *173:43 *1377:B 2.11674e-05
18 *297:22 *1374:A2 1.19928e-05
19 *297:45 *1377:B 0
*RES
1 *1373:X *1374:A2 6.65 
2 *1373:X *1377:B 16.62 
*END

*D_NET *303 0.00110113
*CONN
*I *1376:B1 I *D sky130_fd_sc_hd__a211o_2
*I *1374:Y O *D sky130_fd_sc_hd__a21oi_2
*CAP
1 *1376:B1 0.000290145
2 *1374:Y 0.000290145
3 *1376:B1 *1376:C1 8.7152e-06
4 *1376:B1 *1377:A 0.000348367
5 *1376:B1 *460:10 0
6 *1376:B1 *461:28 0.00011379
7 *297:22 *1376:B1 4.99619e-05
*RES
1 *1374:Y *1376:B1 13.11 
*END

*D_NET *304 0.00148597
*CONN
*I *1376:C1 I *D sky130_fd_sc_hd__a211o_2
*I *1375:X O *D sky130_fd_sc_hd__and3_2
*CAP
1 *1376:C1 0.000355413
2 *1375:X 0.000355413
3 *1376:C1 *1377:A 7.19743e-05
4 *1376:C1 *460:10 0.000118081
5 *1376:C1 *460:117 0.00015639
6 *1376:C1 *460:132 4.66108e-05
7 *1376:C1 *502:26 0.000373375
8 *1376:B1 *1376:C1 8.7152e-06
*RES
1 *1375:X *1376:C1 14.235 
*END

*D_NET *305 0.00144622
*CONN
*I *1378:B1 I *D sky130_fd_sc_hd__o211a_2
*I *1377:Y O *D sky130_fd_sc_hd__nand2_2
*CAP
1 *1378:B1 0.000208927
2 *1377:Y 0.000208927
3 *1378:B1 *1373:A1 2.95708e-05
4 *1378:B1 *1377:A 4.66108e-05
5 *1378:B1 *1379:B1 0.000136182
6 *1378:B1 *1573:CLK 2.49909e-05
7 *1378:B1 *433:79 5.23362e-05
8 *1378:B1 *433:83 0.00037674
9 *1377:B *1378:B1 6.29037e-05
10 *1378:A2 *1378:B1 8.7152e-06
11 *1573:D *1378:B1 0.000140912
12 *1578:D *1378:B1 0.000149406
*RES
1 *1377:Y *1378:B1 14.385 
*END

*D_NET *306 0.00075041
*CONN
*I *1379:B1 I *D sky130_fd_sc_hd__a21oi_2
*I *1378:X O *D sky130_fd_sc_hd__o211a_2
*CAP
1 *1379:B1 8.26278e-05
2 *1378:X 8.26278e-05
3 *1379:B1 *1379:A2 0.00015639
4 *1379:B1 *518:40 0.000158066
5 *1378:B1 *1379:B1 0.000136182
6 *1578:D *1379:B1 0.000134516
*RES
1 *1378:X *1379:B1 10.32 
*END

*D_NET *307 0.00719155
*CONN
*I *1480:B1 I *D sky130_fd_sc_hd__o21a_2
*I *1485:C1 I *D sky130_fd_sc_hd__o211a_2
*I *1476:C1 I *D sky130_fd_sc_hd__o311a_2
*I *1467:C1 I *D sky130_fd_sc_hd__o211a_2
*I *1471:B1 I *D sky130_fd_sc_hd__o21a_2
*I *1461:B1 I *D sky130_fd_sc_hd__o21a_2
*I *1380:X O *D sky130_fd_sc_hd__and2_2
*CAP
1 *1480:B1 9.10537e-06
2 *1485:C1 0.000149892
3 *1476:C1 0
4 *1467:C1 2.07361e-05
5 *1471:B1 0
6 *1461:B1 0
7 *1380:X 0.0005365
8 *307:73 0.000407461
9 *307:52 0.000613769
10 *307:35 0.000424983
11 *307:29 0.000134027
12 *307:22 0.000571904
13 *1480:B1 *1461:A2 3.83041e-05
14 *1485:C1 *1353:B 0.000132872
15 *1485:C1 *1461:A2 0.000129783
16 *1485:C1 *1476:A3 6.45599e-06
17 *1485:C1 *1476:B1 2.78133e-05
18 *1485:C1 *1480:A2 1.24905e-06
19 *1485:C1 *1485:B1 5.53249e-06
20 *1485:C1 *379:10 0
21 *1485:C1 *379:12 0
22 *307:22 *1346:A 8.8266e-05
23 *307:22 *1434:A 8.73147e-06
24 *307:22 *1436:B1 0
25 *307:22 *1622:A 0.000174718
26 *307:22 *425:83 5.43631e-05
27 *307:22 *455:8 8.57321e-05
28 *307:22 *559:31 4.66826e-05
29 *307:29 *1461:A1 8.8266e-05
30 *307:29 *1461:A2 0.000164874
31 *307:29 *559:31 3.90495e-05
32 *307:35 *1461:A1 0.000109786
33 *307:35 *582:81 9.46248e-05
34 *307:52 *1455:A3 8.40213e-05
35 *307:52 *1455:B1 3.96284e-05
36 *307:52 *1461:A1 4.16445e-05
37 *307:52 *1471:A1 0.000237238
38 *307:52 *1471:A2 0.000487934
39 *307:52 *1659:A 0
40 *307:52 *368:23 6.57949e-06
41 *307:52 *378:42 2.95708e-05
42 *307:52 *378:57 0.000133857
43 *307:73 *1353:B 0.000206018
44 *307:73 *1432:A 5.63183e-05
45 *307:73 *1467:A1 0.00023936
46 *307:73 *1467:A2 6.55706e-05
47 *307:73 *1471:A2 0.000232411
48 *307:73 *1476:A1 0.000118081
49 *307:73 *1476:A2 4.66108e-05
50 *307:73 *1476:A3 0.000105583
51 *307:73 *1480:A2 0.000121755
52 *1213:D *307:22 0.000113373
53 *1567:D *307:22 0.000139412
54 *1576:D *1467:C1 3.21081e-06
55 *1576:D *1480:B1 2.75229e-05
56 *1576:D *307:22 7.00889e-06
57 *1576:D *307:29 8.95932e-05
58 *1576:D *307:52 0.000205222
59 *1576:D *307:73 5.96104e-05
60 *1579:D *307:35 0
61 *98:28 *307:22 0.000128931
*RES
1 *1380:X *307:22 19.305 
2 *307:22 *1461:B1 1.6 
3 *307:22 *307:29 2.175 
4 *307:29 *307:35 6.145 
5 *307:35 *1471:B1 1.6 
6 *307:35 *307:52 13.705 
7 *307:52 *1467:C1 1.96 
8 *307:52 *307:73 12.2388 
9 *307:73 *1476:C1 1.6 
10 *307:73 *1485:C1 8.56625 
11 *307:29 *1480:B1 2.05 
*END

*D_NET *308 0.0054974
*CONN
*I *1382:A_N I *D sky130_fd_sc_hd__and2b_2
*I *1390:B I *D sky130_fd_sc_hd__and2_2
*I *1389:A I *D sky130_fd_sc_hd__nor3b_2
*I *1393:A1 I *D sky130_fd_sc_hd__o21bai_2
*I *1381:Y O *D sky130_fd_sc_hd__o21ai_2
*CAP
1 *1382:A_N 0.000326673
2 *1390:B 0.000418708
3 *1389:A 0
4 *1393:A1 0.000179776
5 *1381:Y 0.0006439
6 *308:31 0.000418708
7 *308:16 0.000497003
8 *1382:A_N *1381:A2 0.000124473
9 *1382:A_N *1382:B 3.03684e-05
10 *1382:A_N *1398:A2 6.13115e-05
11 *1382:A_N *1400:D 0.000216196
12 *1382:A_N *1401:A1 8.64421e-05
13 *1382:A_N *1401:A3 0.000235568
14 *1382:A_N *309:10 2.36716e-05
15 *1382:A_N *378:42 0.000274523
16 *1382:A_N *569:40 0.00023603
17 *1390:B *1389:C_N 5.63111e-05
18 *1390:B *1394:B 1.4399e-05
19 *1390:B *316:8 0.000194891
20 *1390:B *317:6 6.20088e-05
21 *1390:B *318:14 0.000264459
22 *1390:B *319:18 0.000161529
23 *1390:B *321:14 2.68526e-05
24 *1390:B *577:120 2.50602e-05
25 *1393:A1 *1389:C_N 0
26 *1393:A1 *1397:A2 0
27 *1393:A1 *576:105 0.000178526
28 *308:16 *1381:A1 0.000119279
29 *308:16 *1398:A2 0.000121027
30 *308:16 *1398:B1 4.77757e-05
31 *308:16 *321:14 0
32 *308:16 *531:20 0
33 *308:16 *535:35 0
34 *308:16 *575:100 1.7635e-05
35 *308:16 *576:105 1.39456e-05
36 *1233:B *1390:B 0
37 *1400:B *1382:A_N 3.33749e-05
38 *197:12 *1390:B 0.000353831
39 *208:8 *308:16 3.31413e-05
*RES
1 *1381:Y *308:16 13.21 
2 *308:16 *1393:A1 6.555 
3 *308:16 *308:31 2 
4 *308:31 *1389:A 1.6 
5 *308:31 *1390:B 11.74 
6 *1381:Y *1382:A_N 12.62 
*END

*D_NET *309 0.00281252
*CONN
*I *1385:B1 I *D sky130_fd_sc_hd__a21oi_2
*I *1383:C I *D sky130_fd_sc_hd__and3_2
*I *1391:A1 I *D sky130_fd_sc_hd__o21a_2
*I *1392:B I *D sky130_fd_sc_hd__or3_2
*I *1382:X O *D sky130_fd_sc_hd__and2b_2
*CAP
1 *1385:B1 0
2 *1383:C 7.76437e-05
3 *1391:A1 3.2284e-05
4 *1392:B 0.000117325
5 *1382:X 0.000575537
6 *309:43 0.000376973
7 *309:10 0.000425817
8 *1383:C *1383:A 5.31666e-05
9 *1383:C *1385:A2 0
10 *1392:B *1391:B1 5.83518e-05
11 *1392:B *319:18 5.96131e-05
12 *1392:B *531:41 0
13 *309:10 *1382:B 4.82863e-05
14 *309:10 *1397:B1 0
15 *309:10 *319:18 2.97004e-06
16 *309:10 *531:41 0
17 *309:43 *1382:B 0.000116832
18 *309:43 *1383:A 4.7242e-05
19 *309:43 *1386:B 5.23093e-05
20 *309:43 *1401:A3 0.000112285
21 *309:43 *1405:B1 0.000134092
22 *309:43 *460:65 2.0514e-05
23 *309:43 *531:66 0
24 *309:43 *533:46 2.84198e-05
25 *1247:B *309:10 6.15288e-05
26 *1247:B *309:43 0.000110618
27 *1247:C *309:10 0
28 *1382:A_N *309:10 2.36716e-05
29 *197:12 *309:10 0.000111036
30 *201:10 *1392:B 4.99619e-05
31 *213:8 *309:43 0
32 *300:22 *1383:C 6.77501e-05
33 *300:22 *309:43 4.82863e-05
*RES
1 *1382:X *309:10 8.16 
2 *309:10 *1392:B 5.685 
3 *309:10 *1391:A1 4.05 
4 *1382:X *309:43 12.11 
5 *309:43 *1383:C 3.46 
6 *309:43 *1385:B1 1.6 
*END

*D_NET *310 0.002137
*CONN
*I *1384:S I *D sky130_fd_sc_hd__mux2_1
*I *1386:A I *D sky130_fd_sc_hd__or2_2
*I *1383:X O *D sky130_fd_sc_hd__and3_2
*CAP
1 *1384:S 7.95953e-05
2 *1386:A 0.000221369
3 *1383:X 0.000244738
4 *310:12 0.000545703
5 *1384:S *1387:A2 0.00012208
6 *1384:S *533:46 2.33708e-05
7 *1386:A *1387:A2 2.14005e-05
8 *1386:A *1405:A1 1.12643e-05
9 *1386:A *1405:A2 7.63133e-05
10 *1386:A *1405:B1 0.000167101
11 *1386:A *313:10 0.000236035
12 *310:12 *332:10 5.63795e-05
13 *310:12 *460:61 0.000198149
14 *310:12 *533:46 4.11251e-05
15 *188:10 *1384:S 8.11541e-05
16 *188:18 *310:12 1.12261e-05
*RES
1 *1383:X *310:12 9.32 
2 *310:12 *1386:A 7.285 
3 *310:12 *1384:S 3.79 
*END

*D_NET *311 0.00154019
*CONN
*I *1405:A2 I *D sky130_fd_sc_hd__o211a_2
*I *1387:A2 I *D sky130_fd_sc_hd__a22o_2
*I *1384:X O *D sky130_fd_sc_hd__mux2_1
*CAP
1 *1405:A2 0.000176036
2 *1387:A2 0.000298619
3 *1384:X 0.000474655
4 *1387:A2 *1387:A1 6.22432e-06
5 *1387:A2 *1399:A 1.88656e-05
6 *1387:A2 *1399:B 8.52845e-05
7 *1387:A2 *1401:A1 2.65691e-05
8 *1387:A2 *1401:A2 1.6766e-05
9 *1387:A2 *313:10 0
10 *1387:A2 *531:12 0
11 *1387:A2 *537:56 0.000121031
12 *1387:A2 *569:40 6.92786e-05
13 *1387:A2 *569:62 1.19928e-05
14 *1405:A2 *1405:A1 6.03947e-06
15 *1405:A2 *1405:B1 9.03508e-06
16 *1384:S *1387:A2 0.00012208
17 *1386:A *1387:A2 2.14005e-05
18 *1386:A *1405:A2 7.63133e-05
*RES
1 *1384:X *1387:A2 12.57 
2 *1384:X *1405:A2 5.645 
*END

*D_NET *312 0.00017401
*CONN
*I *1386:B I *D sky130_fd_sc_hd__or2_2
*I *1385:Y O *D sky130_fd_sc_hd__a21oi_2
*CAP
1 *1386:B 3.38644e-05
2 *1385:Y 3.38644e-05
3 *1386:B *531:66 5.39718e-05
4 *309:43 *1386:B 5.23093e-05
*RES
1 *1385:Y *1386:B 8.325 
*END

*D_NET *313 0.00142891
*CONN
*I *1387:B1 I *D sky130_fd_sc_hd__a22o_2
*I *1399:B I *D sky130_fd_sc_hd__or2_2
*I *1386:X O *D sky130_fd_sc_hd__or2_2
*CAP
1 *1387:B1 0
2 *1399:B 0.000179739
3 *1386:X 0.000288824
4 *313:10 0.000468563
5 *1399:B *1399:A 9.58678e-06
6 *1399:B *1401:A2 2.72392e-05
7 *1399:B *569:40 1.17846e-05
8 *1399:B *569:62 5.83121e-06
9 *313:10 *1401:B1 4.47938e-06
10 *313:10 *1405:A1 0.000111547
11 *1386:A *313:10 0.000236035
12 *1387:A2 *1399:B 8.52845e-05
13 *1387:A2 *313:10 0
*RES
1 *1386:X *313:10 7.755 
2 *313:10 *1399:B 6.345 
3 *313:10 *1387:B1 3.6 
*END

*D_NET *314 0.000789649
*CONN
*I *1401:B1 I *D sky130_fd_sc_hd__a31o_2
*I *1387:X O *D sky130_fd_sc_hd__a22o_2
*CAP
1 *1401:B1 0.000180872
2 *1387:X 0.000180872
3 *1401:B1 *1399:A 0.000256593
4 *1401:B1 *1401:A2 4.01019e-05
5 *1401:B1 *1405:A1 8.41703e-06
6 *1401:B1 *537:56 2.12219e-05
7 *1401:B1 *569:40 1.00941e-05
8 *188:18 *1401:B1 8.69971e-05
9 *313:10 *1401:B1 4.47938e-06
*RES
1 *1387:X *1401:B1 9.36587 
*END

*D_NET *315 0.0012338
*CONN
*I *1389:B I *D sky130_fd_sc_hd__nor3b_2
*I *1393:A2 I *D sky130_fd_sc_hd__o21bai_2
*I *1388:X O *D sky130_fd_sc_hd__and3_2
*CAP
1 *1389:B 0.000110833
2 *1393:A2 5.63971e-05
3 *1388:X 8.97776e-05
4 *315:8 0.000257008
5 *1389:B *535:35 0
6 *1389:B *535:45 0
7 *1389:B *576:105 0.000172758
8 *1393:A2 *531:28 4.70743e-05
9 *315:8 *1388:C 1.34503e-05
10 *315:8 *531:20 6.80075e-05
11 *315:8 *531:28 3.86545e-05
12 *201:10 *1393:A2 0.000119242
13 *201:10 *315:8 0.000260598
*RES
1 *1388:X *315:8 4.48 
2 *315:8 *1393:A2 3.1 
3 *315:8 *1389:B 7.745 
*END

*D_NET *316 0.00101237
*CONN
*I *1397:A1 I *D sky130_fd_sc_hd__o21ai_2
*I *1394:A I *D sky130_fd_sc_hd__or4bb_2
*I *1389:Y O *D sky130_fd_sc_hd__nor3b_2
*CAP
1 *1397:A1 7.34752e-05
2 *1394:A 2.16493e-05
3 *1389:Y 0.000137505
4 *316:8 0.00023263
5 *1394:A *1397:A2 4.91032e-05
6 *1394:A *321:14 4.78726e-05
7 *1397:A1 *1397:A2 0.000101184
8 *1397:A1 *1397:B1 4.66108e-05
9 *1397:A1 *321:14 0.000107444
10 *1390:B *316:8 0.000194891
*RES
1 *1389:Y *316:8 5.43 
2 *316:8 *1394:A 4.215 
3 *316:8 *1397:A1 5.43 
*END

*D_NET *317 0.000982651
*CONN
*I *1391:A2 I *D sky130_fd_sc_hd__o21a_2
*I *1392:C I *D sky130_fd_sc_hd__or3_2
*I *1390:X O *D sky130_fd_sc_hd__and2_2
*CAP
1 *1391:A2 3.22513e-05
2 *1392:C 0.000115716
3 *1390:X 4.11106e-05
4 *317:6 0.000189078
5 *1391:A2 *318:14 7.22329e-05
6 *1391:A2 *577:120 0.00010978
7 *1392:C *1391:B1 0.000133126
8 *1392:C *531:41 0
9 *1392:C *577:120 0
10 *317:6 *318:14 2.75145e-05
11 *317:6 *577:120 0.000199833
12 *1390:B *317:6 6.20088e-05
*RES
1 *1390:X *317:6 3.43 
2 *317:6 *1392:C 7.49 
3 *317:6 *1391:A2 2.74 
*END

*D_NET *318 0.00178236
*CONN
*I *1394:B I *D sky130_fd_sc_hd__or4bb_2
*I *1397:A2 I *D sky130_fd_sc_hd__o21ai_2
*I *1391:X O *D sky130_fd_sc_hd__o21a_2
*CAP
1 *1394:B 3.05188e-05
2 *1397:A2 0.000118468
3 *1391:X 0.000319573
4 *318:14 0.000468559
5 *1397:A2 *1389:C_N 4.43871e-06
6 *1397:A2 *1394:D_N 2.68328e-05
7 *1397:A2 *321:14 1.1071e-05
8 *1397:A2 *569:40 7.9642e-06
9 *318:14 *319:18 0.000141083
10 *318:14 *577:120 6.1357e-05
11 *1390:B *1394:B 1.4399e-05
12 *1390:B *318:14 0.000264459
13 *1391:A2 *318:14 7.22329e-05
14 *1393:A1 *1397:A2 0
15 *1394:A *1397:A2 4.91032e-05
16 *1397:A1 *1397:A2 0.000101184
17 *163:33 *1397:A2 6.36031e-05
18 *317:6 *318:14 2.75145e-05
*RES
1 *1391:X *318:14 8.065 
2 *318:14 *1397:A2 8.255 
3 *318:14 *1394:B 2.05 
*END

*D_NET *319 0.00176031
*CONN
*I *1394:C_N I *D sky130_fd_sc_hd__or4bb_2
*I *1397:B1 I *D sky130_fd_sc_hd__o21ai_2
*I *1392:X O *D sky130_fd_sc_hd__or3_2
*CAP
1 *1394:C_N 0
2 *1397:B1 0.000175895
3 *1392:X 0.000167506
4 *319:18 0.000343401
5 *1397:B1 *1394:D_N 8.53113e-06
6 *1397:B1 *1398:B1 1.52418e-05
7 *1397:B1 *569:40 0.000122337
8 *319:18 *1394:D_N 0
9 *319:18 *577:120 7.06865e-05
10 *1390:B *319:18 0.000161529
11 *1392:B *319:18 5.96131e-05
12 *1397:A1 *1397:B1 4.66108e-05
13 *1400:C *1397:B1 2.95721e-05
14 *163:33 *1397:B1 6.05212e-05
15 *201:10 *319:18 4.99619e-05
16 *208:8 *1397:B1 0.000304847
17 *309:10 *1397:B1 0
18 *309:10 *319:18 2.97004e-06
19 *318:14 *319:18 0.000141083
*RES
1 *1392:X *319:18 9.725 
2 *319:18 *1397:B1 10.1 
3 *319:18 *1394:C_N 1.6 
*END

*D_NET *320 0.000796589
*CONN
*I *1394:D_N I *D sky130_fd_sc_hd__or4bb_2
*I *1393:Y O *D sky130_fd_sc_hd__o21bai_2
*CAP
1 *1394:D_N 0.000184648
2 *1393:Y 0.000184648
3 *1394:D_N *1389:C_N 4.99619e-05
4 *1394:D_N *531:28 1.55649e-05
5 *1394:D_N *577:120 0.00012657
6 *1397:A2 *1394:D_N 2.68328e-05
7 *1397:B1 *1394:D_N 8.53113e-06
8 *201:10 *1394:D_N 0.000199833
9 *319:18 *1394:D_N 0
*RES
1 *1393:Y *1394:D_N 11.175 
*END

*D_NET *321 0.00145305
*CONN
*I *1398:A1 I *D sky130_fd_sc_hd__o21ai_2
*I *1400:D I *D sky130_fd_sc_hd__or4_2
*I *1394:X O *D sky130_fd_sc_hd__or4bb_2
*CAP
1 *1398:A1 0
2 *1400:D 0.000124576
3 *1394:X 0.00028252
4 *321:14 0.000407096
5 *321:14 *1381:A1 0
6 *321:14 *1389:C_N 5.74926e-05
7 *321:14 *1398:B1 0
8 *321:14 *569:40 5.86717e-05
9 *1382:A_N *1400:D 0.000216196
10 *1390:B *321:14 2.68526e-05
11 *1394:A *321:14 4.78726e-05
12 *1397:A1 *321:14 0.000107444
13 *1397:A2 *321:14 1.1071e-05
14 *1400:B *1400:D 0.000113255
15 *308:16 *321:14 0
*RES
1 *1394:X *321:14 10.595 
2 *321:14 *1400:D 4.93 
3 *321:14 *1398:A1 1.6 
*END

*D_NET *322 0.000633749
*CONN
*I *1396:B1 I *D sky130_fd_sc_hd__o31a_2
*I *1395:Y O *D sky130_fd_sc_hd__a21oi_2
*CAP
1 *1396:B1 0.000112657
2 *1395:Y 0.000112657
3 *1396:B1 *1398:A2 1.03423e-05
4 *1396:B1 *583:76 2.92086e-05
5 *1395:B1 *1396:B1 6.27347e-05
6 *208:8 *1396:B1 0.00030615
*RES
1 *1395:Y *1396:B1 6.425 
*END

*D_NET *323 0.00219274
*CONN
*I *1398:A2 I *D sky130_fd_sc_hd__o21ai_2
*I *1396:X O *D sky130_fd_sc_hd__o31a_2
*CAP
1 *1398:A2 0.000656797
2 *1396:X 0.000656797
3 *1398:A2 *1381:A1 0.000153135
4 *1398:A2 *1398:B1 0.000109541
5 *1398:A2 *1401:A1 8.64421e-05
6 *1398:A2 *535:18 0.000132357
7 *1382:A_N *1398:A2 6.13115e-05
8 *1395:B1 *1398:A2 8.8266e-05
9 *1396:B1 *1398:A2 1.03423e-05
10 *1400:B *1398:A2 0.000109817
11 *208:8 *1398:A2 6.91157e-06
12 *308:16 *1398:A2 0.000121027
*RES
1 *1396:X *1398:A2 17.43 
*END

*D_NET *324 0.000604847
*CONN
*I *1398:B1 I *D sky130_fd_sc_hd__o21ai_2
*I *1397:Y O *D sky130_fd_sc_hd__o21ai_2
*CAP
1 *1398:B1 0.000212688
2 *1397:Y 0.000212688
3 *1397:B1 *1398:B1 1.52418e-05
4 *1398:A2 *1398:B1 0.000109541
5 *208:8 *1398:B1 6.91157e-06
6 *308:16 *1398:B1 4.77757e-05
7 *321:14 *1398:B1 0
*RES
1 *1397:Y *1398:B1 10.32 
*END

*D_NET *325 0.00115434
*CONN
*I *1401:A1 I *D sky130_fd_sc_hd__a31o_2
*I *1398:Y O *D sky130_fd_sc_hd__o21ai_2
*CAP
1 *1401:A1 0.000371889
2 *1398:Y 0.000371889
3 *1401:A1 *1387:A1 3.23663e-05
4 *1401:A1 *1401:A2 5.69794e-06
5 *1401:A1 *537:56 1.7635e-05
6 *1401:A1 *569:40 1.26595e-05
7 *1401:A1 *579:105 0.00012657
8 *1401:A1 *580:97 1.61831e-05
9 *1382:A_N *1401:A1 8.64421e-05
10 *1387:A2 *1401:A1 2.65691e-05
11 *1398:A2 *1401:A1 8.64421e-05
*RES
1 *1398:Y *1401:A1 12.69 
*END

*D_NET *326 0.0013327
*CONN
*I *1401:A2 I *D sky130_fd_sc_hd__a31o_2
*I *1399:X O *D sky130_fd_sc_hd__or2_2
*CAP
1 *1401:A2 0.000406824
2 *1399:X 0.000406824
3 *1401:A2 *1382:B 3.68784e-05
4 *1401:A2 *1387:A1 4.66826e-05
5 *1401:A2 *1405:A1 1.31646e-05
6 *1401:A2 *1405:C1 8.53113e-06
7 *1401:A2 *569:62 0.000121023
8 *1401:A2 *579:105 6.87286e-05
9 *1401:A2 *580:97 0.000134241
10 *1387:A2 *1401:A2 1.6766e-05
11 *1399:B *1401:A2 2.72392e-05
12 *1401:A1 *1401:A2 5.69794e-06
13 *1401:B1 *1401:A2 4.01019e-05
*RES
1 *1399:X *1401:A2 13.2825 
*END

*D_NET *327 0.000867235
*CONN
*I *1401:A3 I *D sky130_fd_sc_hd__a31o_2
*I *1400:X O *D sky130_fd_sc_hd__or4_2
*CAP
1 *1401:A3 0.000204161
2 *1400:X 0.000204161
3 *1401:A3 *1382:B 0.00011106
4 *1382:A_N *1401:A3 0.000235568
5 *309:43 *1401:A3 0.000112285
*RES
1 *1400:X *1401:A3 10.755 
*END

*D_NET *328 0.000931889
*CONN
*I *1405:B1 I *D sky130_fd_sc_hd__o211a_2
*I *1401:X O *D sky130_fd_sc_hd__a31o_2
*CAP
1 *1405:B1 0.000160719
2 *1401:X 0.000160719
3 *1405:B1 *1382:B 0.0001305
4 *1405:B1 *1405:C1 8.40213e-05
5 *1405:B1 *580:97 8.57024e-05
6 *1386:A *1405:B1 0.000167101
7 *1405:A2 *1405:B1 9.03508e-06
8 *309:43 *1405:B1 0.000134092
*RES
1 *1401:X *1405:B1 11.475 
*END

*D_NET *329 0.00106418
*CONN
*I *1404:A0 I *D sky130_fd_sc_hd__mux2_1
*I *1402:X O *D sky130_fd_sc_hd__and2b_2
*CAP
1 *1404:A0 0.000314448
2 *1402:X 0.000314448
3 *1404:A0 *1208:A2 0
4 *1404:A0 *1403:B 0.000198945
5 *1404:A0 *1449:B 4.43871e-06
6 *1404:A0 *330:12 0.000141416
7 *1404:A0 *533:91 2.05056e-05
8 *1404:A0 *588:43 2.16833e-05
9 *1404:S *1404:A0 4.82919e-05
*RES
1 *1402:X *1404:A0 12.06 
*END

*D_NET *330 0.00128413
*CONN
*I *1404:A1 I *D sky130_fd_sc_hd__mux2_1
*I *1449:B I *D sky130_fd_sc_hd__and4_2
*I *1403:X O *D sky130_fd_sc_hd__and2b_2
*CAP
1 *1404:A1 0
2 *1449:B 0.000267228
3 *1403:X 9.43328e-05
4 *330:12 0.000361561
5 *1449:B *1553:RESET_B 0.000161829
6 *1449:B *579:67 9.54399e-05
7 *1449:B *583:76 1.47347e-05
8 *330:12 *1527:CLK 0.000111459
9 *330:12 *579:67 3.16934e-05
10 *1208:B1 *1449:B 0
11 *1404:A0 *1449:B 4.43871e-06
12 *1404:A0 *330:12 0.000141416
*RES
1 *1403:X *330:12 6.045 
2 *330:12 *1449:B 7.59 
3 *330:12 *1404:A1 3.6 
*END

*D_NET *331 0.00596177
*CONN
*I *1405:C1 I *D sky130_fd_sc_hd__o211a_2
*I *1404:X O *D sky130_fd_sc_hd__mux2_1
*CAP
1 *1405:C1 0.00168146
2 *1404:X 0.00168146
3 *1405:C1 *1382:B 0.000130354
4 *1405:C1 *1405:A1 0
5 *1405:C1 *580:72 0.000871626
6 *1405:C1 *580:89 0.000230435
7 *1405:C1 *580:97 0.000362616
8 *1227:B *1405:C1 1.60203e-05
9 *1401:A2 *1405:C1 8.53113e-06
10 *1405:B1 *1405:C1 8.40213e-05
11 *1446:B1 *1405:C1 1.46828e-05
12 *192:14 *1405:C1 0.000756559
13 *212:10 *1405:C1 0.000124007
*RES
1 *1404:X *1405:C1 32.64 
*END

*D_NET *332 0.0124306
*CONN
*I *1441:A I *D sky130_fd_sc_hd__nor2_2
*I *1423:C1 I *D sky130_fd_sc_hd__o211a_2
*I *1420:C1 I *D sky130_fd_sc_hd__o311a_2
*I *1421:A2 I *D sky130_fd_sc_hd__o21ba_2
*I *1405:X O *D sky130_fd_sc_hd__o211a_2
*CAP
1 *1441:A 0.00223841
2 *1423:C1 0
3 *1420:C1 0.000513157
4 *1421:A2 1.94295e-05
5 *1405:X 0.000105037
6 *332:36 0.00060532
7 *332:34 0.000969139
8 *332:10 0.00323986
9 *1420:C1 *1420:A2 4.80163e-05
10 *1420:C1 *1421:A1 0.000645855
11 *1421:A2 *1421:A1 5.30673e-05
12 *1421:A2 *1423:A2 0.000124895
13 *1441:A *1189:C 0
14 *1441:A *1428:A 0.000160702
15 *1441:A *1480:A2 8.41015e-06
16 *1441:A *350:12 0.000262989
17 *1441:A *378:42 0.00073299
18 *1441:A *531:96 0
19 *1441:A *533:46 3.41424e-05
20 *332:10 *1382:B 0
21 *332:10 *1405:A1 2.0851e-06
22 *332:34 *1225:B 8.9067e-05
23 *332:34 *1248:A 5.05521e-05
24 *332:34 *1412:A 7.75231e-05
25 *332:34 *350:12 0.000195959
26 *332:34 *531:66 5.53549e-06
27 *332:34 *533:46 0.000209659
28 *332:34 *579:84 0.000285587
29 *332:34 *579:105 4.80285e-05
30 *332:34 *595:10 0.000164874
31 *332:36 *1423:A2 0.00015639
32 *1213:B *1441:A 0.000665309
33 *1240:C *332:34 4.78585e-05
34 *1248:B *332:34 0.000372901
35 *1445:B1 *332:34 0.000138961
36 *188:18 *1441:A 1.75162e-05
37 *188:18 *332:34 3.61362e-05
38 *213:8 *332:34 2.95708e-05
39 *284:21 *1441:A 1.92979e-05
40 *310:12 *332:10 5.63795e-05
*RES
1 *1405:X *332:10 5.8625 
2 *332:10 *332:34 19.9428 
3 *332:34 *332:36 1.485 
4 *332:36 *1421:A2 2.74 
5 *332:36 *1420:C1 9.865 
6 *332:34 *1423:C1 1.6 
7 *332:10 *1441:A 8.97357 
*END

*D_NET *333 0.00284577
*CONN
*I *1407:B I *D sky130_fd_sc_hd__nor2_2
*I *1406:X O *D sky130_fd_sc_hd__mux4_2
*CAP
1 *1407:B 0.000654543
2 *1406:X 0.000654543
3 *1407:B *1251:A 5.17822e-05
4 *1407:B *1271:A 5.30732e-05
5 *1407:B *1406:A1 0.000190525
6 *1407:B *1406:A2 4.82863e-05
7 *1407:B *1406:S0 0.000274568
8 *1407:B *1406:S1 0.000137008
9 *1407:B *435:51 0.000155265
10 *1407:B *538:120 0.000232105
11 *1251:C *1407:B 0.000201503
12 *1530:D *1407:B 0.000192564
*RES
1 *1406:X *1407:B 17.93 
*END

*D_NET *334 0.00187009
*CONN
*I *1419:A1 I *D sky130_fd_sc_hd__o31ai_2
*I *1420:A1 I *D sky130_fd_sc_hd__o311a_2
*I *1407:Y O *D sky130_fd_sc_hd__nor2_2
*CAP
1 *1419:A1 9.51397e-05
2 *1420:A1 8.05811e-05
3 *1407:Y 0.000311625
4 *334:8 0.000487346
5 *1419:A1 *1292:A 0.000120655
6 *1419:A1 *1420:A3 4.47209e-05
7 *1419:A1 *339:20 0
8 *1419:A1 *462:16 0.00027042
9 *1420:A1 *1292:C 1.70935e-05
10 *1420:A1 *1420:A3 5.83588e-05
11 *1420:A1 *347:12 9.5799e-06
12 *1420:A1 *462:16 6.50498e-05
13 *334:8 *1292:B 0.000117407
14 *334:8 *1292:C 3.32139e-05
15 *334:8 *1293:A 4.55864e-06
16 *334:8 *462:16 8.08153e-06
17 *1407:A *334:8 0
18 *1411:A *1420:A1 5.08304e-06
19 *1411:A *334:8 0.000141173
*RES
1 *1407:Y *334:8 10.08 
2 *334:8 *1420:A1 5.745 
3 *334:8 *1419:A1 6.48 
*END

*D_NET *335 0.00124671
*CONN
*I *1409:A I *D sky130_fd_sc_hd__or3b_2
*I *1408:X O *D sky130_fd_sc_hd__mux2_1
*CAP
1 *1409:A 0.000256659
2 *1408:X 0.000256659
3 *1409:A *1253:A 0.000149062
4 *1409:A *1409:C_N 0
5 *1409:A *1412:B 0
6 *1409:A *1422:B 8.58651e-05
7 *1409:A *433:160 8.65905e-05
8 *1409:A *440:16 0.00010074
9 *1409:A *440:42 0.000195648
10 *1409:A *462:16 8.8266e-05
11 *1409:A *585:108 1.7635e-05
12 *1624:A *1409:A 9.58678e-06
*RES
1 *1408:X *1409:A 13.71 
*END

*D_NET *336 0.00157484
*CONN
*I *1412:B I *D sky130_fd_sc_hd__nand2_2
*I *1409:X O *D sky130_fd_sc_hd__or3b_2
*CAP
1 *1412:B 0.000393755
2 *1409:X 0.000393755
3 *1412:B *1252:A1 5.83121e-06
4 *1412:B *1406:A2 4.21973e-05
5 *1412:B *1409:C_N 0.000330827
6 *1412:B *1422:B 0.000154314
7 *1412:B *1446:B2 2.34345e-05
8 *1412:B *439:28 2.17931e-05
9 *1412:B *439:36 0.000160641
10 *1412:B *462:16 4.82919e-05
11 *1409:A *1412:B 0
*RES
1 *1409:X *1412:B 15.315 
*END

*D_NET *337 0.00136557
*CONN
*I *1411:B I *D sky130_fd_sc_hd__nor2_2
*I *1410:X O *D sky130_fd_sc_hd__mux2_1
*CAP
1 *1411:B 0.000464833
2 *1410:X 0.000464833
3 *1411:B *1271:C 2.04748e-05
4 *1411:B *1537:CLK 4.18603e-06
5 *1411:B *338:10 9.37731e-05
6 *1411:B *447:21 1.34594e-05
7 *1411:B *448:33 0.000250694
8 *1411:B *540:33 5.33172e-05
9 *1411:A *1411:B 0
10 *1537:D *1411:B 0
*RES
1 *1410:X *1411:B 13.77 
*END

*D_NET *338 0.00263336
*CONN
*I *1419:A2 I *D sky130_fd_sc_hd__o31ai_2
*I *1420:A2 I *D sky130_fd_sc_hd__o311a_2
*I *1411:Y O *D sky130_fd_sc_hd__nor2_2
*CAP
1 *1419:A2 0
2 *1420:A2 0.000297647
3 *1411:Y 0.000530657
4 *338:10 0.000828304
5 *1420:A2 *1419:B1 4.16349e-07
6 *1420:A2 *1421:A1 8.96017e-05
7 *1420:A2 *1487:A0 1.16578e-05
8 *1420:A2 *345:12 8.6272e-05
9 *338:10 *1251:A 7.27402e-06
10 *338:10 *1271:B 0.000215966
11 *338:10 *435:10 0
12 *338:10 *435:12 0
13 *338:10 *435:51 0
14 *338:10 *448:12 3.03775e-05
15 *338:10 *586:147 0
16 *1251:B *338:10 0.000153499
17 *1272:C *338:10 3.67993e-05
18 *1411:A *1420:A2 2.29156e-05
19 *1411:A *338:10 0
20 *1411:B *338:10 9.37731e-05
21 *1420:C1 *1420:A2 4.80163e-05
22 *1544:D *338:10 5.21458e-05
23 *172:22 *1420:A2 4.32126e-05
24 *172:22 *338:10 8.48268e-05
*RES
1 *1411:Y *338:10 14.445 
2 *338:10 *1420:A2 9.27 
3 *338:10 *1419:A2 3.6 
*END

*D_NET *339 0.00308625
*CONN
*I *1419:A3 I *D sky130_fd_sc_hd__o31ai_2
*I *1420:A3 I *D sky130_fd_sc_hd__o311a_2
*I *1412:Y O *D sky130_fd_sc_hd__nand2_2
*CAP
1 *1419:A3 0
2 *1420:A3 0.00025228
3 *1412:Y 0.000353448
4 *339:20 0.000605728
5 *1420:A3 *1250:C 0
6 *1420:A3 *1292:A 0.000122331
7 *1420:A3 *1419:B1 0.000499122
8 *1420:A3 *1421:A1 0
9 *1420:A3 *462:16 8.65348e-05
10 *339:20 *1250:B 0
11 *339:20 *1250:C 0.000175673
12 *339:20 *1406:A2 8.65961e-05
13 *339:20 *1419:B1 2.39856e-05
14 *339:20 *441:10 2.47313e-05
15 *339:20 *462:16 8.23457e-05
16 *339:20 *586:147 0.000329467
17 *1251:C *339:20 0
18 *1419:A1 *1420:A3 4.47209e-05
19 *1419:A1 *339:20 0
20 *1420:A1 *1420:A3 5.83588e-05
21 *172:22 *339:20 0.000340931
*RES
1 *1412:Y *339:20 14.96 
2 *339:20 *1420:A3 12.11 
3 *339:20 *1419:A3 1.6 
*END

*D_NET *340 0.00124857
*CONN
*I *1417:A2 I *D sky130_fd_sc_hd__o22ai_2
*I *1413:X O *D sky130_fd_sc_hd__mux4_2
*CAP
1 *1417:A2 0.000240332
2 *1413:X 0.000240332
3 *1417:A2 *1210:A1 0.000101417
4 *1417:A2 *1603:A 9.18454e-05
5 *1417:A2 *442:62 0.000241187
6 *1417:A2 *538:88 2.49909e-05
7 *1417:A2 *538:92 7.71289e-05
8 *1296:B *1417:A2 7.06865e-05
9 *1545:D *1417:A2 0.000160651
*RES
1 *1413:X *1417:A2 13.815 
*END

*D_NET *341 0.000702026
*CONN
*I *1415:A I *D sky130_fd_sc_hd__or3b_2
*I *1414:X O *D sky130_fd_sc_hd__mux2_1
*CAP
1 *1415:A 0.000277187
2 *1414:X 0.000277187
3 *1415:A *1288:B1 4.43871e-06
4 *1415:A *1415:C_N 4.82919e-05
5 *1415:A *435:69 0
6 *1415:A *538:66 4.7043e-05
7 *1415:A *585:85 4.35148e-05
8 *1415:A *585:108 4.36422e-06
*RES
1 *1414:X *1415:A 11.79 
*END

*D_NET *342 0.000856368
*CONN
*I *1418:C_N I *D sky130_fd_sc_hd__or3b_2
*I *1415:X O *D sky130_fd_sc_hd__or3b_2
*CAP
1 *1418:C_N 0.000250885
2 *1415:X 0.000250885
3 *1418:C_N *1418:B 0
4 *1418:C_N *585:85 0.00024438
5 *1418:C_N *586:54 2.96553e-05
6 *1418:C_N *586:58 3.27862e-05
7 *1418:C_N *587:119 4.77757e-05
*RES
1 *1415:X *1418:C_N 12.345 
*END

*D_NET *343 0.000350293
*CONN
*I *1417:B1 I *D sky130_fd_sc_hd__o22ai_2
*I *1416:X O *D sky130_fd_sc_hd__mux2_1
*CAP
1 *1417:B1 0.000116974
2 *1416:X 0.000116974
3 *1417:B1 *1543:CLK 6.95814e-05
4 *1417:B1 *1603:A 4.18904e-05
5 *1417:B1 *441:37 4.87234e-06
*RES
1 *1416:X *1417:B1 9.285 
*END

*D_NET *344 0.000924807
*CONN
*I *1418:B I *D sky130_fd_sc_hd__or3b_2
*I *1417:Y O *D sky130_fd_sc_hd__o22ai_2
*CAP
1 *1418:B 0.000281289
2 *1417:Y 0.000281289
3 *1418:B *1543:CLK 7.58604e-05
4 *1418:B *1603:A 0
5 *1418:B *442:6 2.49909e-05
6 *1418:B *442:62 0.000126037
7 *1418:B *586:58 0
8 *1417:B2 *1418:B 4.82919e-05
9 *1418:C_N *1418:B 0
10 *175:25 *1418:B 7.26758e-05
11 *175:38 *1418:B 1.43729e-05
*RES
1 *1417:Y *1418:B 12.63 
*END

*D_NET *345 0.00320271
*CONN
*I *1419:B1 I *D sky130_fd_sc_hd__o31ai_2
*I *1420:B1 I *D sky130_fd_sc_hd__o311a_2
*I *1418:X O *D sky130_fd_sc_hd__or3b_2
*CAP
1 *1419:B1 0.000432
2 *1420:B1 0
3 *1418:X 0.000353061
4 *345:12 0.000785061
5 *1419:B1 *1250:C 4.9253e-06
6 *1419:B1 *1421:A1 1.29636e-05
7 *1419:B1 *462:16 7.68414e-06
8 *345:12 *1210:B1 0.000207484
9 *345:12 *587:119 5.06989e-05
10 *1411:A *1419:B1 7.67259e-05
11 *1411:A *345:12 0.000428361
12 *1420:A2 *1419:B1 4.16349e-07
13 *1420:A2 *345:12 8.6272e-05
14 *1420:A3 *1419:B1 0.000499122
15 *133:48 *345:12 7.48905e-05
16 *175:38 *345:12 0.000159059
17 *339:20 *1419:B1 2.39856e-05
*RES
1 *1418:X *345:12 10.4613 
2 *345:12 *1420:B1 1.6 
3 *345:12 *1419:B1 12.0387 
*END

*D_NET *346 0.00143323
*CONN
*I *1423:A2 I *D sky130_fd_sc_hd__o211a_2
*I *1419:Y O *D sky130_fd_sc_hd__o31ai_2
*CAP
1 *1423:A2 0.000373461
2 *1419:Y 0.000373461
3 *1423:A2 *1421:A1 2.7441e-05
4 *1423:A2 *1487:A0 0.000119756
5 *1423:A2 *1487:A1 8.49205e-05
6 *1423:A2 *586:147 0.000114118
7 *1423:A2 *594:10 5.87882e-05
8 *1421:A2 *1423:A2 0.000124895
9 *332:36 *1423:A2 0.00015639
*RES
1 *1419:Y *1423:A2 14.22 
*END

*D_NET *347 0.0150392
*CONN
*I *1473:C1 I *D sky130_fd_sc_hd__a221o_2
*I *1462:C1 I *D sky130_fd_sc_hd__a221o_2
*I *1421:B1_N I *D sky130_fd_sc_hd__o21ba_2
*I *1420:X O *D sky130_fd_sc_hd__o311a_2
*CAP
1 *1473:C1 9.27243e-05
2 *1462:C1 0.000209583
3 *1421:B1_N 1.92787e-05
4 *1420:X 0.000615346
5 *347:31 0.00376451
6 *347:12 0.00409683
7 *1421:B1_N *1487:S 8.53113e-06
8 *1421:B1_N *586:147 1.41634e-05
9 *1421:B1_N *594:10 3.96153e-05
10 *1462:C1 *1455:A3 2.93658e-05
11 *1462:C1 *1455:B1 3.07961e-05
12 *1462:C1 *1462:A2 2.80483e-05
13 *1462:C1 *1462:B1 4.00541e-06
14 *1462:C1 *1462:B2 1.33285e-05
15 *1462:C1 *381:22 1.25466e-05
16 *1473:C1 *1151:A 8.52883e-05
17 *1473:C1 *1467:B1 4.77719e-05
18 *1473:C1 *1481:A2 1.18384e-05
19 *1473:C1 *368:40 1.77626e-05
20 *1473:C1 *371:22 0.000122332
21 *1473:C1 *381:22 3.04704e-05
22 *347:12 *462:16 2.05571e-05
23 *347:12 *535:78 0
24 *347:12 *570:64 0
25 *347:12 *585:108 0.000155036
26 *347:31 *1368:A 4.19316e-05
27 *347:31 *1429:A 0
28 *347:31 *1435:B2 2.45773e-05
29 *347:31 *1453:A1_N 0.000165354
30 *347:31 *1453:B1 0.000258074
31 *347:31 *1467:B1 4.84789e-05
32 *347:31 *350:12 0.00464073
33 *347:31 *378:65 2.26415e-05
34 *347:31 *440:16 0.0002413
35 *347:31 *460:30 7.51751e-05
36 *347:31 *535:78 0
37 *347:31 *585:108 2.05839e-05
38 *1420:A1 *347:12 9.5799e-06
39 *1455:A1 *1473:C1 2.10152e-05
40 *1575:D *347:31 0
*RES
1 *1420:X *347:12 5.4193 
2 *347:12 *1421:B1_N 4.5875 
3 *347:12 *347:31 12.414 
4 *347:31 *1462:C1 4.5175 
5 *347:31 *1473:C1 4.495 
*END

*D_NET *348 0.000511761
*CONN
*I *1487:A1 I *D sky130_fd_sc_hd__mux2_1
*I *1421:X O *D sky130_fd_sc_hd__o21ba_2
*CAP
1 *1487:A1 0.000171227
2 *1421:X 0.000171227
3 *1487:A1 *1487:A0 8.43862e-05
4 *1423:A2 *1487:A1 8.49205e-05
*RES
1 *1421:X *1487:A1 5.375 
*END

*D_NET *349 0.000968919
*CONN
*I *1423:B1 I *D sky130_fd_sc_hd__o211a_2
*I *1422:X O *D sky130_fd_sc_hd__or2_2
*CAP
1 *1423:B1 0.000282679
2 *1422:X 0.000282679
3 *1423:B1 *1409:C_N 2.61104e-05
4 *1423:B1 *1412:A 0
5 *1423:B1 *1422:B 3.52139e-06
6 *1423:B1 *1446:B2 1.88466e-05
7 *1423:B1 *1530:CLK 2.77183e-05
8 *1423:B1 *439:48 1.4399e-05
9 *1445:A2 *1423:B1 0.000156483
10 *1445:B1 *1423:B1 0.000156483
*RES
1 *1422:X *1423:B1 12.105 
*END

*D_NET *350 0.0122069
*CONN
*I *1453:B1 I *D sky130_fd_sc_hd__o2bb2a_2
*I *1455:A2 I *D sky130_fd_sc_hd__o31a_2
*I *1423:X O *D sky130_fd_sc_hd__o211a_2
*CAP
1 *1453:B1 0.0001354
2 *1455:A2 9.43777e-05
3 *1423:X 0.00234496
4 *350:12 0.00257474
5 *1453:B1 *1435:B2 1.88656e-05
6 *1453:B1 *368:23 1.88656e-05
7 *1453:B1 *378:42 4.63423e-05
8 *1455:A2 *1441:B 2.14278e-05
9 *1455:A2 *1453:A1_N 0.000104894
10 *1455:A2 *1471:A1 2.05583e-05
11 *1455:A2 *378:42 1.37596e-05
12 *1455:A2 *378:57 3.14885e-05
13 *1455:A2 *380:17 7.23533e-05
14 *350:12 *1446:B2 9.26907e-06
15 *350:12 *378:42 0.000976507
16 *350:12 *535:78 0
17 *350:12 *595:10 1.92979e-05
18 *1213:B *350:12 5.72729e-05
19 *1213:D *350:12 0.000279243
20 *1224:B *350:12 0
21 *1441:A *350:12 0.000262989
22 *1455:A1 *1455:A2 9.50342e-06
23 *188:18 *350:12 0
24 *332:34 *350:12 0.000195959
25 *347:31 *1453:B1 0.000258074
26 *347:31 *350:12 0.00464073
*RES
1 *1423:X *350:12 11.3625 
2 *350:12 *1455:A2 6.3725 
3 *350:12 *1453:B1 4.7201 
*END

*D_NET *351 0.00537025
*CONN
*I *1436:A1 I *D sky130_fd_sc_hd__a221o_2
*I *1424:X O *D sky130_fd_sc_hd__or2_2
*CAP
1 *1436:A1 0.00147558
2 *1424:X 0.00147558
3 *1436:A1 *1424:A 8.58007e-05
4 *1436:A1 *1424:B 0.000111392
5 *1436:A1 *1427:A 8.26958e-05
6 *1436:A1 *1429:B 0
7 *1436:A1 *1436:A2 0.000289524
8 *1436:A1 *1436:B2 1.20741e-05
9 *1436:A1 *1436:C1 8.8623e-05
10 *1436:A1 *1494:A 0.000223492
11 *1436:A1 *1495:A 0
12 *1436:A1 *1495:B 0.000201508
13 *1436:A1 *1577:CLK 4.77719e-05
14 *1436:A1 *1580:CLK 0.000152073
15 *1436:A1 *1591:CLK 0.000155348
16 *1436:A1 *501:35 0
17 *1436:A1 *528:18 6.71882e-05
18 uo_out[3] *1436:A1 4.94457e-05
19 uo_out[4] *1436:A1 0.000290049
20 uo_out[5] *1436:A1 1.56428e-05
21 *1575:D *1436:A1 0.000166946
22 *1577:D *1436:A1 0.000165365
23 *1591:D *1436:A1 0.000214152
*RES
1 *1424:X *1436:A1 36.075 
*END

*D_NET *352 0.00330013
*CONN
*I *1436:A2 I *D sky130_fd_sc_hd__a221o_2
*I *1425:Y O *D sky130_fd_sc_hd__nand2_2
*CAP
1 *1436:A2 0.000896554
2 *1425:Y 0.000896554
3 *1436:A2 *1436:C1 2.49974e-05
4 *1436:A2 *1574:CLK 0.000108098
5 *1436:A2 *433:93 0.000307339
6 *1436:A2 *461:14 4.82919e-05
7 *1436:A2 *528:18 4.30866e-05
8 *1436:A2 *534:33 0.000128659
9 *1436:A1 *1436:A2 0.000289524
10 *1574:D *1436:A2 2.78641e-05
11 *1579:D *1436:A2 0.000529163
*RES
1 *1425:Y *1436:A2 18.6537 
*END

*D_NET *353 0.00567555
*CONN
*I *1435:A1 I *D sky130_fd_sc_hd__a221o_2
*I *1426:X O *D sky130_fd_sc_hd__or2_2
*CAP
1 *1435:A1 0.00147295
2 *1426:X 0.00147295
3 *1435:A1 *1379:A2 0.000122325
4 *1435:A1 *1426:A 0.0003879
5 *1435:A1 *1435:A2 1.37395e-05
6 *1435:A1 *1435:B2 0.000259599
7 *1435:A1 *1490:B 4.66108e-05
8 *1435:A1 *1499:A 0.000274659
9 *1435:A1 *1505:A 0.0007739
10 *1435:A1 *1508:A2 0.000389572
11 *1435:A1 *483:32 0.000293243
12 *1600:D *1435:A1 0.000168092
*RES
1 *1426:X *1435:A1 30.53 
*END

*D_NET *354 0.00445154
*CONN
*I *1435:A2 I *D sky130_fd_sc_hd__a221o_2
*I *1427:Y O *D sky130_fd_sc_hd__nand2_2
*CAP
1 *1435:A2 0.00110198
2 *1427:Y 0.00110198
3 *1435:A2 *1427:B 4.58257e-05
4 *1435:A2 *1435:B1 5.53249e-06
5 *1435:A2 *1435:B2 1.2818e-05
6 *1435:A2 *1497:B 0.000122524
7 *1435:A2 *1595:CLK 0.000185405
8 *1435:A2 *1622:A 0
9 *1435:A2 *582:81 0.000745084
10 *1435:A1 *1435:A2 1.37395e-05
11 *1647:A *1435:A2 0.00111666
12 *1665:A *1435:A2 0
*RES
1 *1427:Y *1435:A2 27.6038 
*END

*D_NET *355 0.00535832
*CONN
*I *1436:B1 I *D sky130_fd_sc_hd__a221o_2
*I *1428:X O *D sky130_fd_sc_hd__or2_2
*CAP
1 *1436:B1 0.00140725
2 *1428:X 0.00140725
3 *1436:B1 *1182:B 0.000218257
4 *1436:B1 *1428:A 5.63183e-05
5 *1436:B1 *1428:B 3.77257e-05
6 *1436:B1 *1431:A 0.000162311
7 *1436:B1 *1434:A 0.000258353
8 *1436:B1 *1525:GATE 0.000137993
9 *1436:B1 *424:12 4.99619e-05
10 *1436:B1 *432:30 8.57024e-05
11 *1436:B1 *452:22 7.9642e-06
12 *1436:B1 *455:14 7.06865e-05
13 *1436:B1 *455:18 0.000560647
14 *1436:B1 *501:35 0.000319879
15 *1436:B1 *585:145 0
16 *1187:A3 *1436:B1 7.03353e-05
17 *1213:D *1436:B1 0
18 *1361:B1 *1436:B1 0.000134509
19 *1567:D *1436:B1 1.34361e-05
20 *1568:D *1436:B1 4.40812e-05
21 *1576:D *1436:B1 0
22 *1580:D *1436:B1 4.12825e-05
23 *1667:A *1436:B1 0.000268554
24 *98:28 *1436:B1 0
25 *288:38 *1436:B1 0
26 *291:16 *1436:B1 5.83121e-06
27 *307:22 *1436:B1 0
*RES
1 *1428:X *1436:B1 39.76 
*END

*D_NET *356 0.00598136
*CONN
*I *1436:B2 I *D sky130_fd_sc_hd__a221o_2
*I *1429:Y O *D sky130_fd_sc_hd__nand2_2
*CAP
1 *1436:B2 0.00208686
2 *1429:Y 0.00208686
3 *1436:B2 *1203:A 0.000109532
4 *1436:B2 *1253:B 2.69493e-05
5 *1436:B2 *1366:A 0
6 *1436:B2 *1429:A 0.000534095
7 *1436:B2 *1429:B 9.3062e-06
8 *1436:B2 *1436:C1 1.12643e-05
9 *1436:B2 *1604:A 5.02217e-05
10 *1436:B2 *434:74 0
11 *1436:B2 *501:35 0.000148039
12 *1436:B2 *518:30 0.000119592
13 *1436:B2 *528:42 1.60144e-05
14 uo_out[0] *1436:B2 0
15 *1202:A *1436:B2 0
16 *1376:A1 *1436:B2 0.000103968
17 *1436:A1 *1436:B2 1.20741e-05
18 *1512:B *1436:B2 0
19 *1534:D *1436:B2 0.00015829
20 *1590:D *1436:B2 0.000116158
21 *134:93 *1436:B2 0.000392146
*RES
1 *1429:Y *1436:B2 20.0743 
*END

*D_NET *357 0.000633824
*CONN
*I *1435:C1 I *D sky130_fd_sc_hd__a221o_2
*I *1430:X O *D sky130_fd_sc_hd__xor2_2
*CAP
1 *1435:C1 0.000159767
2 *1430:X 0.000159767
3 *1435:C1 *1434:B 0.000134229
4 *1435:C1 *1435:B1 8.74884e-05
5 *1435:C1 *1622:A 6.16564e-05
6 *1435:C1 *582:81 0
7 *1579:D *1435:C1 3.09164e-05
8 *1588:D *1435:C1 0
*RES
1 *1430:X *1435:C1 11.13 
*END

*D_NET *358 0.000846396
*CONN
*I *1437:A I *D sky130_fd_sc_hd__or3_2
*I *1431:X O *D sky130_fd_sc_hd__xor2_2
*CAP
1 *1437:A 0.000238581
2 *1431:X 0.000238581
3 *1437:A *1434:A 7.88312e-05
4 *1437:A *1437:B 8.08153e-06
5 *1437:A *1437:C 0.00011852
6 *1437:A *1493:A 7.72054e-05
7 *1437:A *1496:A 0
8 *1437:A *1525:CLK 0
9 *1437:A *424:51 0
10 *1437:A *528:74 8.65961e-05
11 *1589:D *1437:A 0
*RES
1 *1431:X *1437:A 12.18 
*END

*D_NET *359 0.00640658
*CONN
*I *1435:B1 I *D sky130_fd_sc_hd__a221o_2
*I *1432:Y O *D sky130_fd_sc_hd__nand2_2
*CAP
1 *1435:B1 0.00205034
2 *1432:Y 0.00205034
3 *1435:B1 *1152:A 1.83847e-05
4 *1435:B1 *1432:A 0.000115144
5 *1435:B1 *1432:B 1.56428e-05
6 *1435:B1 *1454:A 0
7 *1435:B1 *1454:B 0
8 *1435:B1 *1454:C 0.000128763
9 *1435:B1 *1472:A 0.000130465
10 *1435:B1 *1489:A 4.82863e-05
11 *1435:B1 *1586:CLK 0.000138719
12 *1435:B1 *1654:A 1.33293e-05
13 *1435:B1 *1656:A 8.65961e-05
14 *1435:B1 *424:123 0.000190464
15 *1435:B1 *424:130 0.000233156
16 *1435:B1 *483:14 0.000163204
17 *1435:B1 *494:12 0.000180706
18 *1435:B1 *496:21 3.26889e-05
19 *1435:B1 *527:55 0.000231687
20 *1435:B1 *582:81 7.10348e-05
21 *1435:A2 *1435:B1 5.53249e-06
22 *1435:C1 *1435:B1 8.74884e-05
23 *1481:A1 *1435:B1 5.062e-06
24 *1583:D *1435:B1 6.53745e-05
25 *1585:D *1435:B1 9.28365e-05
26 *1586:D *1435:B1 7.7516e-05
27 *1587:D *1435:B1 7.36892e-05
28 *1588:D *1435:B1 0.000100139
*RES
1 *1432:Y *1435:B1 43.675 
*END

*D_NET *360 0.00428722
*CONN
*I *1435:B2 I *D sky130_fd_sc_hd__a221o_2
*I *1433:X O *D sky130_fd_sc_hd__or2_2
*CAP
1 *1435:B2 0.00117125
2 *1433:X 0.00117125
3 *1435:B2 *1151:A 0
4 *1435:B2 *1353:B 0.00033517
5 *1435:B2 *1354:A 0
6 *1435:B2 *1356:A 0
7 *1435:B2 *1379:A2 3.92801e-05
8 *1435:B2 *1437:B 0.000205376
9 *1435:B2 *1441:B 0
10 *1435:B2 *1453:A1_N 3.96263e-05
11 *1435:B2 *1462:A2 1.88602e-05
12 *1435:B2 *1467:A2 0
13 *1435:B2 *1490:A 4.18603e-06
14 *1435:B2 *1490:B 0
15 *1435:B2 *1499:A 0.000130445
16 *1435:B2 *1499:B 4.82919e-05
17 *1435:B2 *1657:A 0
18 *1435:B2 *368:10 4.50017e-05
19 *1435:B2 *368:23 0.000167753
20 *1435:B2 *368:40 6.97124e-05
21 *1435:B2 *371:22 1.15399e-05
22 *1435:B2 *381:22 0
23 *1435:B2 *424:134 0
24 *1435:B2 *454:68 0.000137578
25 *1435:B2 *497:16 0
26 *1435:B2 *527:19 2.23485e-05
27 *1355:A2 *1435:B2 0
28 *1357:A2 *1435:B2 4.8854e-05
29 *1435:A1 *1435:B2 0.000259599
30 *1435:A2 *1435:B2 1.2818e-05
31 *1453:B1 *1435:B2 1.88656e-05
32 *1455:A1 *1435:B2 0
33 *1594:D *1435:B2 0.000304823
34 *347:31 *1435:B2 2.45773e-05
*RES
1 *1433:X *1435:B2 29.835 
*END

*D_NET *361 0.00180225
*CONN
*I *1436:C1 I *D sky130_fd_sc_hd__a221o_2
*I *1434:X O *D sky130_fd_sc_hd__xor2_2
*CAP
1 *1436:C1 0.000326937
2 *1434:X 0.000326937
3 *1436:C1 *1379:A2 0.00013128
4 *1436:C1 *1434:B 4.2854e-05
5 *1436:C1 *1437:B 0.000200615
6 *1436:C1 *1437:C 0.000385327
7 *1436:C1 *1493:A 3.518e-05
8 *1436:C1 *1493:B 0.000158066
9 *1436:A1 *1436:C1 8.8623e-05
10 *1436:A2 *1436:C1 2.49974e-05
11 *1436:B2 *1436:C1 1.12643e-05
12 *1579:D *1436:C1 2.18774e-05
13 *1589:D *1436:C1 4.82919e-05
*RES
1 *1434:X *1436:C1 11.945 
*END

*D_NET *362 0.00165738
*CONN
*I *1437:B I *D sky130_fd_sc_hd__or3_2
*I *1435:X O *D sky130_fd_sc_hd__a221o_2
*CAP
1 *1437:B 0.000545271
2 *1435:X 0.000545271
3 *1437:B *1379:A2 2.45315e-05
4 *1437:B *1434:B 6.27029e-05
5 *1437:B *1437:C 6.55328e-05
6 *1437:B *1496:A 0
7 *1437:B *424:51 0
8 *1435:B2 *1437:B 0.000205376
9 *1436:C1 *1437:B 0.000200615
10 *1437:A *1437:B 8.08153e-06
11 *1592:D *1437:B 0
*RES
1 *1435:X *1437:B 14.97 
*END

*D_NET *363 0.00116405
*CONN
*I *1437:C I *D sky130_fd_sc_hd__or3_2
*I *1436:X O *D sky130_fd_sc_hd__a221o_2
*CAP
1 *1437:C 0.000297337
2 *1436:X 0.000297337
3 *1436:C1 *1437:C 0.000385327
4 *1437:A *1437:C 0.00011852
5 *1437:B *1437:C 6.55328e-05
*RES
1 *1436:X *1437:C 12.135 
*END

*D_NET *364 0.001624
*CONN
*I *1440:D_N I *D sky130_fd_sc_hd__or4b_2
*I *1437:X O *D sky130_fd_sc_hd__or3_2
*CAP
1 *1440:D_N 0.000285438
2 *1437:X 0.000285438
3 *1440:D_N *1440:C 0
4 *1440:D_N *1650:A 0.000403567
5 *1440:D_N *528:74 0.000352498
6 *1440:D_N *528:93 0.000297061
*RES
1 *1437:X *1440:D_N 11.615 
*END

*D_NET *365 0.000513137
*CONN
*I *1439:D I *D sky130_fd_sc_hd__or4_2
*I *1438:X O *D sky130_fd_sc_hd__or4_2
*CAP
1 *1439:D 0.000143723
2 *1438:X 0.000143723
3 *1439:D *1439:C 0
4 *1439:D *1440:C 9.66106e-05
5 *1439:D *1454:A 4.18603e-06
6 *1439:D *1454:B 0
7 *1439:D *1454:C 0.000124895
8 *1439:D *1601:CLK 0
*RES
1 *1438:X *1439:D 10.32 
*END

*D_NET *366 0.00253207
*CONN
*I *1440:C I *D sky130_fd_sc_hd__or4b_2
*I *1439:X O *D sky130_fd_sc_hd__or4_2
*CAP
1 *1440:C 0.000873469
2 *1439:X 0.000873469
3 *1440:C *1439:A 8.8266e-05
4 *1440:C *1440:B 0.00010836
5 *1440:C *1454:C 7.25441e-05
6 *1440:C *1650:A 1.4174e-05
7 *1440:C *1657:A 4.66108e-05
8 *1440:C *381:22 2.10134e-05
9 *1440:C *424:145 0.000265752
10 *1439:D *1440:C 9.66106e-05
11 *1440:D_N *1440:C 0
12 *1599:D *1440:C 7.17982e-05
*RES
1 *1439:X *1440:C 17.615 
*END

*D_NET *367 0.00237577
*CONN
*I *1441:B I *D sky130_fd_sc_hd__nor2_2
*I *1440:X O *D sky130_fd_sc_hd__or4b_2
*CAP
1 *1441:B 0.000785801
2 *1440:X 0.000785801
3 *1441:B *1471:A1 5.23362e-05
4 *1441:B *1480:A2 0
5 *1441:B *1498:A 0
6 *1441:B *1499:A 0
7 *1441:B *1650:A 0.000196376
8 *1441:B *1658:A 0
9 *1441:B *378:42 0
10 *1441:B *380:17 3.42142e-05
11 *1441:B *528:95 6.28843e-05
12 *1441:B *528:99 0.000170642
13 *1441:B *559:31 4.70109e-05
14 *1441:B *582:81 0
15 *1435:B2 *1441:B 0
16 *1455:A1 *1441:B 8.0005e-05
17 *1455:A2 *1441:B 2.14278e-05
18 *1587:D *1441:B 3.59997e-05
19 *1595:D *1441:B 7.23533e-05
20 *284:21 *1441:B 3.09164e-05
*RES
1 *1440:X *1441:B 20.865 
*END

*D_NET *368 0.00379346
*CONN
*I *1481:A2 I *D sky130_fd_sc_hd__a21o_2
*I *1473:B2 I *D sky130_fd_sc_hd__a221o_2
*I *1462:B2 I *D sky130_fd_sc_hd__a221o_2
*I *1453:B2 I *D sky130_fd_sc_hd__o2bb2a_2
*I *1441:Y O *D sky130_fd_sc_hd__nor2_2
*CAP
1 *1481:A2 0.000199824
2 *1473:B2 0
3 *1462:B2 1.03217e-05
4 *1453:B2 0
5 *1441:Y 9.61787e-05
6 *368:40 0.000594158
7 *368:23 0.000549413
8 *368:10 0.000240937
9 *1462:B2 *1455:A3 1.33285e-05
10 *1481:A2 *1452:B 0.000234561
11 *1481:A2 *1473:A2 1.37395e-05
12 *1481:A2 *1473:B1 0.000114539
13 *1481:A2 *1481:B1 0.000135856
14 *1481:A2 *1485:B1 2.75145e-05
15 *1481:A2 *371:22 9.35314e-05
16 *368:10 *1353:B 8.53113e-06
17 *368:10 *1480:A2 1.61831e-05
18 *368:10 *378:42 2.05191e-05
19 *368:10 *559:31 0
20 *368:23 *1471:A2 0.000113416
21 *368:23 *378:42 1.96642e-05
22 *368:40 *1151:A 1.31227e-05
23 *368:40 *1455:A3 4.66108e-05
24 *368:40 *1471:A2 6.18688e-05
25 *368:40 *1473:B1 1.65828e-05
26 *368:40 *371:22 5.09835e-06
27 *368:40 *381:22 0.000230616
28 *1435:B2 *368:10 4.50017e-05
29 *1435:B2 *368:23 0.000167753
30 *1435:B2 *368:40 6.97124e-05
31 *1453:B1 *368:23 1.88656e-05
32 *1455:A1 *368:40 2.20014e-05
33 *1462:C1 *1462:B2 1.33285e-05
34 *1473:C1 *1481:A2 1.18384e-05
35 *1473:C1 *368:40 1.77626e-05
36 *1481:A1 *1481:A2 3.00381e-05
37 *98:28 *368:10 0.000275548
38 *284:6 *368:10 0.000238919
39 *307:52 *368:23 6.57949e-06
*RES
1 *1441:Y *368:10 7.245 
2 *368:10 *1453:B2 3.6 
3 *368:10 *368:23 3.21 
4 *368:23 *1462:B2 3.84 
5 *368:23 *368:40 7.85 
6 *368:40 *1473:B2 1.6 
7 *368:40 *1481:A2 7.975 
*END

*D_NET *369 0.00348259
*CONN
*I *1465:B I *D sky130_fd_sc_hd__nand2_2
*I *1469:A2 I *D sky130_fd_sc_hd__a311o_2
*I *1442:Y O *D sky130_fd_sc_hd__nand2_2
*CAP
1 *1465:B 0.00047969
2 *1469:A2 0
3 *1442:Y 0.000311738
4 *369:10 0.000791428
5 *1465:B *1432:B 4.01548e-05
6 *1465:B *1464:B 0.000334782
7 *1465:B *1466:A1 3.1835e-05
8 *1465:B *1467:A2 8.32585e-05
9 *1465:B *1469:A1 8.76619e-05
10 *1465:B *1484:A2 0.000301118
11 *1465:B *1484:B1 2.42236e-05
12 *1465:B *1611:A 6.81424e-05
13 *1465:B *483:14 0
14 *1465:B *494:8 4.66826e-05
15 *369:10 *1442:B 0.000309714
16 *369:10 *1458:A1 0.000160215
17 *369:10 *1458:B1 0
18 *369:10 *1469:A1 9.50342e-06
19 *369:10 *1484:A2 7.23602e-05
20 *369:10 *1484:B1 9.44271e-05
21 *369:10 *1606:A 4.13879e-05
22 *369:10 *1610:A 1.37311e-05
23 *369:10 *384:19 8.37257e-05
24 *369:10 *384:30 9.68132e-05
25 *369:10 *563:12 0
*RES
1 *1442:Y *369:10 11.505 
2 *369:10 *1469:A2 3.6 
3 *369:10 *1465:B 14.73 
*END

*D_NET *370 0.00225437
*CONN
*I *1444:A I *D sky130_fd_sc_hd__inv_2
*I *1443:X O *D sky130_fd_sc_hd__and4_2
*CAP
1 *1444:A 0.000535973
2 *1443:X 0.000535973
3 *1444:A *1344:A 7.14699e-05
4 *1444:A *1344:B 9.90606e-05
5 *1444:A *1460:A1 9.54399e-05
6 *1444:A *1633:A 0.000124895
7 *1444:A *1638:A 0.00016031
8 *1444:A *371:10 0.000270531
9 *1444:A *559:41 0
10 *1444:A *562:6 8.57024e-05
11 *1444:A *562:10 0.000160641
12 *1444:A *562:25 5.02217e-05
13 *1357:A2 *1444:A 6.41593e-05
*RES
1 *1443:X *1444:A 17.52 
*END

*D_NET *371 0.0058375
*CONN
*I *1452:A I *D sky130_fd_sc_hd__nand2_2
*I *1473:A1 I *D sky130_fd_sc_hd__a221o_2
*I *1462:A1 I *D sky130_fd_sc_hd__a221o_2
*I *1453:A1_N I *D sky130_fd_sc_hd__o2bb2a_2
*I *1444:Y O *D sky130_fd_sc_hd__inv_2
*CAP
1 *1452:A 0.000461165
2 *1473:A1 0
3 *1462:A1 0
4 *1453:A1_N 0.000202527
5 *1444:Y 0.000489123
6 *371:50 0.000489176
7 *371:22 0.0005791
8 *371:10 0.000893708
9 *1452:A *1151:A 0
10 *1452:A *1452:B 0.000493251
11 *1452:A *1473:B1 1.91597e-05
12 *1452:A *1654:A 1.84044e-05
13 *1452:A *378:65 8.7152e-06
14 *1453:A1_N *1453:A2_N 5.83121e-06
15 *1453:A1_N *378:42 4.93919e-05
16 *1453:A1_N *378:57 0.000168709
17 *1453:A1_N *378:65 2.22315e-05
18 *371:10 *1353:A 0.000387034
19 *371:10 *453:36 4.86642e-05
20 *371:22 *1467:B1 8.53113e-06
21 *371:50 *378:65 1.88656e-05
22 *1355:A2 *371:10 0
23 *1435:B2 *1453:A1_N 3.96263e-05
24 *1435:B2 *371:22 1.15399e-05
25 *1444:A *371:10 0.000270531
26 *1455:A2 *1453:A1_N 0.000104894
27 *1473:C1 *371:22 0.000122332
28 *1481:A1 *1452:A 2.19562e-06
29 *1481:A2 *371:22 9.35314e-05
30 *1564:D *371:10 0.000538178
31 *1576:D *1453:A1_N 1.24905e-05
32 *1580:D *1452:A 9.387e-06
33 *1580:D *371:10 8.42083e-05
34 *1580:D *371:50 1.45508e-05
35 *347:31 *1453:A1_N 0.000165354
36 *368:40 *371:22 5.09835e-06
*RES
1 *1444:Y *371:10 14.385 
2 *371:10 *371:22 9.07 
3 *371:22 *1453:A1_N 6.89837 
4 *371:22 *1462:A1 3.6 
5 *371:10 *371:50 0.615 
6 *371:50 *1473:A1 3.6 
7 *371:50 *1452:A 10.275 
*END

*D_NET *372 0.00197648
*CONN
*I *1446:B2 I *D sky130_fd_sc_hd__a221oi_2
*I *1445:X O *D sky130_fd_sc_hd__a21o_2
*CAP
1 *1446:B2 0.000477392
2 *1445:X 0.000477392
3 *1446:B2 *1409:C_N 4.76263e-05
4 *1446:B2 *1422:B 0
5 *1446:B2 *1486:A1 7.82855e-05
6 *1446:B2 *1668:addr[0] 0
7 *1446:B2 *433:160 0.000198939
8 *1446:B2 *533:91 0
9 *1446:B2 *570:78 0.000134242
10 *1446:B2 *595:10 0
11 *1226:B *1446:B2 0.000132842
12 *1227:A *1446:B2 4.26938e-06
13 *1248:B *1446:B2 0
14 *1412:B *1446:B2 2.34345e-05
15 *1423:B1 *1446:B2 1.88466e-05
16 *1445:A2 *1446:B2 0.000373945
17 *1446:A1 *1446:B2 0
18 *350:12 *1446:B2 9.26907e-06
*RES
1 *1445:X *1446:B2 17.55 
*END

*D_NET *373 0.000953106
*CONN
*I *1451:A2 I *D sky130_fd_sc_hd__o2111a_2
*I *1446:Y O *D sky130_fd_sc_hd__a221oi_2
*CAP
1 *1451:A2 0.000278887
2 *1446:Y 0.000278887
3 *1451:A2 *1451:C1 1.39456e-05
4 *1451:A2 *1486:A1 0
5 *1227:A *1451:A2 8.8266e-05
6 *1446:A2 *1451:A2 0.000111905
7 *1446:B1 *1451:A2 0.000163199
8 *192:14 *1451:A2 1.80164e-05
*RES
1 *1446:Y *1451:A2 11.445 
*END

*D_NET *374 0.00076231
*CONN
*I *1449:C I *D sky130_fd_sc_hd__and4_2
*I *1447:X O *D sky130_fd_sc_hd__or2_2
*CAP
1 *1449:C 0.000235273
2 *1447:X 0.000235273
3 *1449:C *1553:RESET_B 2.25179e-05
4 *1247:D *1449:C 0.0001249
5 *1447:B *1449:C 4.85494e-05
6 *1449:A *1449:C 2.88785e-05
7 *172:22 *1449:C 6.69172e-05
*RES
1 *1447:X *1449:C 11.01 
*END

*D_NET *375 0.000223671
*CONN
*I *1449:D I *D sky130_fd_sc_hd__and4_2
*I *1448:X O *D sky130_fd_sc_hd__and2_2
*CAP
1 *1449:D 8.33126e-05
2 *1448:X 8.33126e-05
3 *1449:D *579:67 0
4 *1449:D *583:76 1.83847e-05
5 *172:22 *1449:D 3.86607e-05
*RES
1 *1448:X *1449:D 8.52 
*END

*D_NET *376 0.00141736
*CONN
*I *1451:B1 I *D sky130_fd_sc_hd__o2111a_2
*I *1449:X O *D sky130_fd_sc_hd__and4_2
*CAP
1 *1451:B1 0.00029199
2 *1449:X 0.00029199
3 *1451:B1 *1451:C1 3.21634e-05
4 *1451:B1 *1553:RESET_B 2.73033e-05
5 *1451:B1 *1668:addr[1] 0.000125844
6 *1451:B1 *583:76 0.00054624
7 *1451:D1 *1451:B1 0.000101825
*RES
1 *1449:X *1451:B1 10.6175 
*END

*D_NET *377 0.00134499
*CONN
*I *1451:C1 I *D sky130_fd_sc_hd__o2111a_2
*I *1450:Y O *D sky130_fd_sc_hd__xnor2_2
*CAP
1 *1451:C1 0.000426788
2 *1450:Y 0.000426788
3 *1451:C1 *569:40 6.95753e-05
4 *1233:B *1451:C1 0.000238919
5 *1238:C1 *1451:C1 0
6 *1446:A2 *1451:C1 4.32606e-05
7 *1451:A2 *1451:C1 1.39456e-05
8 *1451:B1 *1451:C1 3.21634e-05
9 *199:10 *1451:C1 6.83488e-05
10 *203:8 *1451:C1 2.09578e-05
11 *203:19 *1451:C1 4.24292e-06
*RES
1 *1450:Y *1451:C1 13.755 
*END

*D_NET *378 0.0176765
*CONN
*I *1486:A1 I *D sky130_fd_sc_hd__mux2_1
*I *1462:A2 I *D sky130_fd_sc_hd__a221o_2
*I *1452:B I *D sky130_fd_sc_hd__nand2_2
*I *1473:A2 I *D sky130_fd_sc_hd__a221o_2
*I *1453:A2_N I *D sky130_fd_sc_hd__o2bb2a_2
*I *1451:X O *D sky130_fd_sc_hd__o2111a_2
*CAP
1 *1486:A1 0.000214559
2 *1462:A2 4.33482e-05
3 *1452:B 0.000122096
4 *1473:A2 2.67628e-06
5 *1453:A2_N 3.90345e-05
6 *1451:X 1.3514e-05
7 *378:65 0.000685145
8 *378:57 0.000922465
9 *378:42 0.00294589
10 *378:8 0.00281619
11 *1452:B *1473:B1 0.000120655
12 *1462:A2 *1462:B1 3.18332e-05
13 *1462:A2 *381:22 2.80258e-05
14 *1473:A2 *1473:B1 1.2818e-05
15 *1486:A1 *580:72 8.49205e-05
16 *378:42 *1192:B 1.07797e-05
17 *378:42 *1192:C 0.000118311
18 *378:42 *1349:A 0.000180301
19 *378:42 *1381:A2 1.46744e-05
20 *378:42 *1381:B1 0.000158072
21 *378:42 *1399:A 5.10937e-05
22 *378:42 *1429:A 0.0001873
23 *378:42 *1620:A 0.000326376
24 *378:42 *458:8 0.000129591
25 *378:42 *532:70 3.51227e-05
26 *378:42 *532:88 0.000102289
27 *378:42 *535:18 2.81707e-05
28 *378:42 *535:78 0
29 *378:42 *537:38 0.000236355
30 *378:42 *537:56 0.000939442
31 *378:42 *559:31 2.89319e-05
32 *378:42 *569:40 1.7635e-05
33 *378:42 *583:76 0.00180637
34 *378:57 *1471:A2 2.53191e-06
35 *378:65 *1432:A 0
36 *378:65 *1432:B 0.000333175
37 *1213:B *378:42 0.000512853
38 *1213:D *378:42 0.00028347
39 *1224:B *378:42 0
40 *1226:B *1486:A1 4.82919e-05
41 *1227:A *1486:A1 0.000198615
42 *1351:B *378:42 4.08913e-05
43 *1382:A_N *378:42 0.000274523
44 *1435:B2 *1462:A2 1.88602e-05
45 *1441:A *378:42 0.00073299
46 *1441:B *378:42 0
47 *1446:A1 *1486:A1 0
48 *1446:A2 *1486:A1 0
49 *1446:B2 *1486:A1 7.82855e-05
50 *1451:A2 *1486:A1 0
51 *1452:A *1452:B 0.000493251
52 *1452:A *378:65 8.7152e-06
53 *1453:A1_N *1453:A2_N 5.83121e-06
54 *1453:A1_N *378:42 4.93919e-05
55 *1453:A1_N *378:57 0.000168709
56 *1453:A1_N *378:65 2.22315e-05
57 *1453:B1 *378:42 4.63423e-05
58 *1455:A1 *378:57 1.23047e-05
59 *1455:A2 *378:42 1.37596e-05
60 *1455:A2 *378:57 3.14885e-05
61 *1462:C1 *1462:A2 2.80483e-05
62 *1481:A1 *1452:B 1.03323e-05
63 *1481:A2 *1452:B 0.000234561
64 *1481:A2 *1473:A2 1.37395e-05
65 *1512:B *378:57 0
66 *1576:D *1453:A2_N 1.56315e-05
67 *1580:D *1452:B 4.66474e-05
68 *1580:D *378:65 1.7635e-05
69 *164:10 *378:42 0.000237243
70 *189:16 *1486:A1 2.05056e-05
71 *307:52 *378:42 2.95708e-05
72 *307:52 *378:57 0.000133857
73 *347:31 *378:65 2.26415e-05
74 *350:12 *378:42 0.000976507
75 *368:10 *378:42 2.05191e-05
76 *368:23 *378:42 1.96642e-05
77 *371:50 *378:65 1.88656e-05
*RES
1 *1451:X *378:8 3.8325 
2 *378:8 *378:42 34.2984 
3 *378:42 *1453:A2_N 4.05 
4 *378:42 *378:57 2.6501 
5 *378:57 *378:65 1.6521 
6 *378:65 *1473:A2 3.72375 
7 *378:65 *1452:B 8.73 
8 *378:57 *1462:A2 5.16125 
9 *378:8 *1486:A1 8.1375 
*END

*D_NET *379 0.00536282
*CONN
*I *1485:A1 I *D sky130_fd_sc_hd__o211a_2
*I *1470:B1 I *D sky130_fd_sc_hd__a21oi_2
*I *1479:A I *D sky130_fd_sc_hd__nor2_2
*I *1460:B1 I *D sky130_fd_sc_hd__a21oi_2
*I *1467:A1 I *D sky130_fd_sc_hd__o211a_2
*I *1476:A1 I *D sky130_fd_sc_hd__o311a_2
*I *1452:Y O *D sky130_fd_sc_hd__nand2_2
*CAP
1 *1485:A1 3.56193e-05
2 *1470:B1 0.000287697
3 *1479:A 8.61729e-05
4 *1460:B1 0
5 *1467:A1 0.000119768
6 *1476:A1 3.03336e-05
7 *1452:Y 0.000216076
8 *379:55 0.000559728
9 *379:24 0.000595231
10 *379:14 0.000521197
11 *379:12 0.000291969
12 *379:10 0.000281739
13 *1467:A1 *1353:A 0.000187778
14 *1467:A1 *1471:A2 1.91597e-05
15 *1470:B1 *1475:B1 0.000192125
16 *1470:B1 *1484:A2 1.37328e-05
17 *1470:B1 *1485:A2 4.25379e-05
18 *1476:A1 *1480:A2 0.000121019
19 *1479:A *1470:A2 9.5432e-06
20 *1479:A *1475:A1 3.98637e-05
21 *1479:A *1476:A3 8.76904e-05
22 *1479:A *1479:B 5.53249e-06
23 *1485:A1 *1485:A2 6.32164e-05
24 *379:10 *1485:B1 0
25 *379:10 *1654:A 0.000157602
26 *379:10 *494:12 0
27 *379:12 *1654:A 4.9968e-05
28 *379:14 *1461:A2 0
29 *379:14 *1654:A 0.000108257
30 *379:24 *1353:A 1.7635e-05
31 *379:24 *1467:A2 0.000589074
32 *379:24 *1475:A2 5.02814e-06
33 *379:24 *1654:A 2.98807e-05
34 *379:55 *1475:A1 1.83847e-05
35 *379:55 *1485:A2 3.84712e-05
36 *1485:C1 *379:10 0
37 *1485:C1 *379:12 0
38 *1576:D *1467:A1 5.90819e-05
39 *1580:D *1485:A1 7.76543e-05
40 *1580:D *379:10 0
41 *1580:D *379:55 4.66108e-05
42 *307:73 *1467:A1 0.00023936
43 *307:73 *1476:A1 0.000118081
*RES
1 *1452:Y *379:10 6.705 
2 *379:10 *379:12 0.615 
3 *379:12 *379:14 1.38 
4 *379:14 *379:24 2.632 
5 *379:24 *1476:A1 4.74 
6 *379:24 *1467:A1 7.0125 
7 *379:14 *1460:B1 3.6 
8 *379:12 *379:55 4.175 
9 *379:55 *1479:A 7.235 
10 *379:55 *1470:B1 5.425 
11 *379:10 *1485:A1 4.92375 
*END

*D_NET *380 0.00163533
*CONN
*I *1455:B1 I *D sky130_fd_sc_hd__o31a_2
*I *1471:A1 I *D sky130_fd_sc_hd__o21a_2
*I *1480:A1 I *D sky130_fd_sc_hd__o21a_2
*I *1453:X O *D sky130_fd_sc_hd__o2bb2a_2
*CAP
1 *1455:B1 0.000130706
2 *1471:A1 9.64285e-05
3 *1480:A1 0.000132675
4 *1453:X 0
5 *380:17 0.000257117
6 *380:4 0.000162658
7 *1471:A1 *1461:A1 0.000119631
8 *1441:B *1471:A1 5.23362e-05
9 *1441:B *380:17 3.42142e-05
10 *1455:A1 *1471:A1 8.53113e-06
11 *1455:A2 *1471:A1 2.05583e-05
12 *1455:A2 *380:17 7.23533e-05
13 *1462:C1 *1455:B1 3.07961e-05
14 *1576:D *1480:A1 0.00024046
15 *307:52 *1455:B1 3.96284e-05
16 *307:52 *1471:A1 0.000237238
*RES
1 *1453:X *380:4 1.6 
2 *380:4 *1480:A1 4.39 
3 *380:4 *380:17 2.87 
4 *380:17 *1471:A1 6.84 
5 *380:17 *1455:B1 5.355 
*END

*D_NET *381 0.00427177
*CONN
*I *1462:B1 I *D sky130_fd_sc_hd__a221o_2
*I *1455:A3 I *D sky130_fd_sc_hd__o31a_2
*I *1454:X O *D sky130_fd_sc_hd__or3_2
*CAP
1 *1462:B1 2.78595e-05
2 *1455:A3 7.81348e-05
3 *1454:X 0.000852082
4 *381:22 0.000958076
5 *1455:A3 *1471:A2 0.000160635
6 *381:22 *1151:A 9.96559e-05
7 *381:22 *1454:C 0.000159741
8 *381:22 *1472:A 9.53894e-05
9 *381:22 *1648:A 0.000147781
10 *381:22 *424:145 2.49909e-05
11 *381:22 *424:147 0.00011379
12 *381:22 *424:160 0.000119552
13 *381:22 *483:40 0.000472633
14 *381:22 *497:16 3.82728e-05
15 *381:22 *527:8 0.000232403
16 *1435:B2 *381:22 0
17 *1440:C *381:22 2.10134e-05
18 *1455:A1 *381:22 0.000158938
19 *1462:A2 *1462:B1 3.18332e-05
20 *1462:A2 *381:22 2.80258e-05
21 *1462:B2 *1455:A3 1.33285e-05
22 *1462:C1 *1455:A3 2.93658e-05
23 *1462:C1 *1462:B1 4.00541e-06
24 *1462:C1 *381:22 1.25466e-05
25 *1473:C1 *381:22 3.04704e-05
26 *307:52 *1455:A3 8.40213e-05
27 *368:40 *1455:A3 4.66108e-05
28 *368:40 *381:22 0.000230616
*RES
1 *1454:X *381:22 26.235 
2 *381:22 *1455:A3 3.775 
3 *381:22 *1462:B1 2.215 
*END

*D_NET *382 0.00112936
*CONN
*I *1461:A1 I *D sky130_fd_sc_hd__o21a_2
*I *1455:X O *D sky130_fd_sc_hd__o31a_2
*CAP
1 *1461:A1 0.000341723
2 *1455:X 0.000341723
3 *1471:A1 *1461:A1 0.000119631
4 *1576:D *1461:A1 8.65905e-05
5 *1579:D *1461:A1 0
6 *307:29 *1461:A1 8.8266e-05
7 *307:35 *1461:A1 0.000109786
8 *307:52 *1461:A1 4.16445e-05
*RES
1 *1455:X *1461:A1 12.585 
*END

*D_NET *383 0.00214708
*CONN
*I *1460:A1 I *D sky130_fd_sc_hd__a21oi_2
*I *1456:X O *D sky130_fd_sc_hd__or3b_2
*CAP
1 *1460:A1 0.000596173
2 *1456:X 0.000596173
3 *1460:A1 *1456:C_N 0.000120407
4 *1460:A1 *1461:A2 2.41376e-05
5 *1460:A1 *1475:A2 0
6 *1460:A1 *1476:A2 0
7 *1460:A1 *451:12 0.000246098
8 *1460:A1 *451:40 0.000222246
9 *1460:A1 *562:25 8.31912e-05
10 *1156:A *1460:A1 0.000123225
11 *1444:A *1460:A1 9.54399e-05
12 *1564:D *1460:A1 0
13 *179:42 *1460:A1 3.99879e-05
14 *283:14 *1460:A1 0
*RES
1 *1456:X *1460:A1 18.915 
*END

*D_NET *384 0.00373882
*CONN
*I *1477:A1 I *D sky130_fd_sc_hd__mux2_1
*I *1469:B1 I *D sky130_fd_sc_hd__a311o_2
*I *1483:B1 I *D sky130_fd_sc_hd__a21oi_2
*I *1459:B1 I *D sky130_fd_sc_hd__a21o_2
*I *1457:Y O *D sky130_fd_sc_hd__nor2_2
*CAP
1 *1477:A1 0.000330435
2 *1469:B1 0
3 *1483:B1 0
4 *1459:B1 0.000319931
5 *1457:Y 2.3331e-05
6 *384:30 0.000405586
7 *384:19 0.000221907
8 *384:6 0.000490019
9 *1459:B1 *1459:A1 1.03423e-05
10 *1459:B1 *1613:A 0.000538229
11 *1477:A1 *1469:A3 8.07279e-05
12 *1477:A1 *1470:A1 5.38244e-05
13 *1477:A1 *1470:A2 0.000107415
14 *1477:A1 *1477:A0 0.000193324
15 *1477:A1 *1477:S 0.000160641
16 *1477:A1 *1482:B 0.00010243
17 *384:6 *1613:A 3.75126e-05
18 *384:19 *1457:B 4.09351e-05
19 *384:19 *1458:A1 0
20 *384:19 *1458:B1 0
21 *384:19 *1606:A 3.97211e-05
22 *384:19 *1611:A 0.00019176
23 *384:30 *1469:A1 9.50342e-06
24 *384:30 *1611:A 0.000200706
25 *369:10 *384:19 8.37257e-05
26 *369:10 *384:30 9.68132e-05
*RES
1 *1457:Y *384:6 2.05 
2 *384:6 *1459:B1 7.495 
3 *384:6 *384:19 5.675 
4 *384:19 *1483:B1 3.6 
5 *384:19 *384:30 4.4 
6 *384:30 *1469:B1 1.6 
7 *384:30 *1477:A1 9.475 
*END

*D_NET *385 0.000135094
*CONN
*I *1459:A2 I *D sky130_fd_sc_hd__a21o_2
*I *1458:X O *D sky130_fd_sc_hd__a21o_2
*CAP
1 *1459:A2 4.10134e-05
2 *1458:X 4.10134e-05
3 *1459:A2 *1613:A 5.30673e-05
*RES
1 *1458:X *1459:A2 3.995 
*END

*D_NET *386 0.0030959
*CONN
*I *1460:A2 I *D sky130_fd_sc_hd__a21oi_2
*I *1459:X O *D sky130_fd_sc_hd__a21o_2
*CAP
1 *1460:A2 0.000930595
2 *1459:X 0.000930595
3 *1460:A2 *1371:A 8.73389e-06
4 *1460:A2 *1456:A 0
5 *1460:A2 *1459:A1 4.19967e-05
6 *1460:A2 *1461:A2 4.7878e-05
7 *1460:A2 *1470:A1 0.0002023
8 *1460:A2 *1470:A2 0.000178034
9 *1460:A2 *1475:B1 5.98004e-06
10 *1460:A2 *1476:A3 0.000501732
11 *1460:A2 *1479:B 1.15688e-05
12 *1460:A2 *1480:A2 7.10577e-05
13 *1460:A2 *1626:A 1.16597e-05
14 *1460:A2 *1627:A 1.33954e-05
15 *1460:A2 *521:10 0
16 *1460:A2 *521:30 0
17 *1460:A2 *564:10 2.16376e-05
18 *1460:A2 *564:36 0.000118735
*RES
1 *1459:X *1460:A2 26.26 
*END

*D_NET *387 0.00409181
*CONN
*I *1461:A2 I *D sky130_fd_sc_hd__o21a_2
*I *1460:Y O *D sky130_fd_sc_hd__a21oi_2
*CAP
1 *1461:A2 0.000961785
2 *1460:Y 0.000961785
3 *1461:A2 *1353:B 1.34594e-05
4 *1461:A2 *1471:A2 1.2826e-05
5 *1461:A2 *1476:A2 0
6 *1461:A2 *1480:A2 8.49205e-05
7 *1461:A2 *559:31 0.000576853
8 *1460:A1 *1461:A2 2.41376e-05
9 *1460:A2 *1461:A2 4.7878e-05
10 *1480:B1 *1461:A2 3.83041e-05
11 *1485:C1 *1461:A2 0.000129783
12 *1576:D *1461:A2 0.000919712
13 *1580:D *1461:A2 0.000155491
14 *307:29 *1461:A2 0.000164874
15 *379:14 *1461:A2 0
*RES
1 *1460:Y *1461:A2 24.855 
*END

*D_NET *388 0.000352315
*CONN
*I *1467:B1 I *D sky130_fd_sc_hd__o211a_2
*I *1462:X O *D sky130_fd_sc_hd__a221o_2
*CAP
1 *1467:B1 0.000113488
2 *1462:X 0.000113488
3 *1467:B1 *1467:A2 2.05571e-05
4 *1473:C1 *1467:B1 4.77719e-05
5 *347:31 *1467:B1 4.84789e-05
6 *371:22 *1467:B1 8.53113e-06
*RES
1 *1462:X *1467:B1 9.03 
*END

*D_NET *389 0.00323062
*CONN
*I *1464:B I *D sky130_fd_sc_hd__nand2_2
*I *1482:A I *D sky130_fd_sc_hd__nand2_2
*I *1469:A3 I *D sky130_fd_sc_hd__a311o_2
*I *1463:X O *D sky130_fd_sc_hd__or2_2
*CAP
1 *1464:B 0.000482842
2 *1482:A 0
3 *1469:A3 0.000241728
4 *1463:X 0.000622183
5 *389:10 0.000381069
6 *1464:B *1463:B 8.49205e-05
7 *1464:B *1464:A 0.000134784
8 *1464:B *1611:A 7.63282e-05
9 *1464:B *1627:A 0.000101166
10 *1464:B *483:14 0
11 *1469:A3 *1482:B 0.00033764
12 *1469:A3 *404:6 2.05056e-05
13 *1469:A3 *523:36 3.1835e-05
14 *389:10 *1463:A 0.000300109
15 *1465:B *1464:B 0.000334782
16 *1477:A1 *1469:A3 8.07279e-05
17 *1584:D *1464:B 0
*RES
1 *1463:X *389:10 9.02 
2 *389:10 *1469:A3 6.565 
3 *389:10 *1482:A 1.6 
4 *1463:X *1464:B 16.815 
*END

*D_NET *390 0.00165356
*CONN
*I *1466:S I *D sky130_fd_sc_hd__mux2_1
*I *1464:Y O *D sky130_fd_sc_hd__nand2_2
*CAP
1 *1466:S 0.000351593
2 *1464:Y 0.000351593
3 *1466:S *1464:A 0
4 *1466:S *1465:A 0.000538165
5 *1466:S *1466:A1 0.00016687
6 *1466:S *1488:A 3.23663e-05
7 *1466:S *1627:A 0.000164679
8 *1466:S *1655:A 4.82919e-05
*RES
1 *1464:Y *1466:S 16.44 
*END

*D_NET *391 0.00124774
*CONN
*I *1466:A1 I *D sky130_fd_sc_hd__mux2_1
*I *1465:Y O *D sky130_fd_sc_hd__nand2_2
*CAP
1 *1466:A1 0.000246086
2 *1465:Y 0.000246086
3 *1466:A1 *1464:A 9.9535e-05
4 *1466:A1 *1465:A 3.64998e-06
5 *1466:A1 *1627:A 0.000162318
6 *1466:A1 *524:12 0.000291365
7 *1465:B *1466:A1 3.1835e-05
8 *1466:S *1466:A1 0.00016687
*RES
1 *1465:Y *1466:A1 13.8 
*END

*D_NET *392 0.0045207
*CONN
*I *1467:A2 I *D sky130_fd_sc_hd__o211a_2
*I *1466:X O *D sky130_fd_sc_hd__mux2_1
*CAP
1 *1467:A2 0.00134834
2 *1466:X 0.00134834
3 *1467:A2 *1432:A 0.00100732
4 *1467:A2 *1432:B 0
5 *1467:A2 *1469:A1 3.09164e-05
6 *1467:A2 *1606:A 0
7 *1467:A2 *1607:A 0
8 *1467:A2 *1611:A 2.73083e-05
9 *1435:B2 *1467:A2 0
10 *1465:B *1467:A2 8.32585e-05
11 *1467:B1 *1467:A2 2.05571e-05
12 *307:73 *1467:A2 6.55706e-05
13 *379:24 *1467:A2 0.000589074
*RES
1 *1466:X *1467:A2 14.685 
*END

*D_NET *393 0.00269046
*CONN
*I *1482:B I *D sky130_fd_sc_hd__nand2_2
*I *1470:A1 I *D sky130_fd_sc_hd__a21oi_2
*I *1468:Y O *D sky130_fd_sc_hd__nand2b_2
*CAP
1 *1482:B 0.000170278
2 *1470:A1 0.000174118
3 *1468:Y 0.000344396
4 *1470:A1 *1371:A 0.000223019
5 *1470:A1 *1432:A 1.01661e-05
6 *1470:A1 *1468:A_N 8.65905e-05
7 *1470:A1 *1470:A2 0.000326202
8 *1470:A1 *1475:B1 5.65627e-05
9 *1470:A1 *1477:S 3.96737e-05
10 *1482:B *1465:A 5.16418e-05
11 *1482:B *1483:A2 0.000120655
12 *1482:B *1627:A 5.16418e-05
13 *1482:B *404:6 0.000339321
14 *1460:A2 *1470:A1 0.0002023
15 *1469:A3 *1482:B 0.00033764
16 *1477:A1 *1470:A1 5.38244e-05
17 *1477:A1 *1482:B 0.00010243
*RES
1 *1468:Y *1470:A1 13.65 
2 *1468:Y *1482:B 12.75 
*END

*D_NET *394 0.00186626
*CONN
*I *1470:A2 I *D sky130_fd_sc_hd__a21oi_2
*I *1469:X O *D sky130_fd_sc_hd__a311o_2
*CAP
1 *1470:A2 0.000504262
2 *1469:X 0.000504262
3 *1470:A2 *1432:A 0.000101789
4 *1470:A2 *1476:A3 1.30972e-05
5 *1470:A2 *1477:A0 3.82323e-06
6 *1470:A2 *1479:B 0.000117832
7 *1460:A2 *1470:A2 0.000178034
8 *1470:A1 *1470:A2 0.000326202
9 *1477:A1 *1470:A2 0.000107415
10 *1479:A *1470:A2 9.5432e-06
*RES
1 *1469:X *1470:A2 15.555 
*END

*D_NET *395 0.00476498
*CONN
*I *1471:A2 I *D sky130_fd_sc_hd__o21a_2
*I *1470:Y O *D sky130_fd_sc_hd__a21oi_2
*CAP
1 *1471:A2 0.0015008
2 *1470:Y 0.0015008
3 *1471:A2 *1353:B 6.58339e-05
4 *1471:A2 *1485:A2 0.000540219
5 *1471:A2 *1485:B1 2.75229e-05
6 *1455:A1 *1471:A2 0
7 *1455:A3 *1471:A2 0.000160635
8 *1461:A2 *1471:A2 1.2826e-05
9 *1467:A1 *1471:A2 1.91597e-05
10 *1580:D *1471:A2 3.90199e-05
11 *307:52 *1471:A2 0.000487934
12 *307:73 *1471:A2 0.000232411
13 *368:23 *1471:A2 0.000113416
14 *368:40 *1471:A2 6.18688e-05
15 *378:57 *1471:A2 2.53191e-06
*RES
1 *1470:Y *1471:A2 27.855 
*END

*D_NET *396 0.000670187
*CONN
*I *1473:B1 I *D sky130_fd_sc_hd__a221o_2
*I *1472:X O *D sky130_fd_sc_hd__or3_2
*CAP
1 *1473:B1 0.000166894
2 *1472:X 0.000166894
3 *1473:B1 *1454:B 0
4 *1452:A *1473:B1 1.91597e-05
5 *1452:B *1473:B1 0.000120655
6 *1473:A2 *1473:B1 1.2818e-05
7 *1481:A2 *1473:B1 0.000114539
8 *1580:D *1473:B1 5.26434e-05
9 *368:40 *1473:B1 1.65828e-05
*RES
1 *1472:X *1473:B1 10.77 
*END

*D_NET *397 0.0012205
*CONN
*I *1481:B1 I *D sky130_fd_sc_hd__a21o_2
*I *1476:B1 I *D sky130_fd_sc_hd__o311a_2
*I *1473:X O *D sky130_fd_sc_hd__a221o_2
*CAP
1 *1481:B1 0.000163824
2 *1476:B1 0.00015853
3 *1473:X 0
4 *397:4 0.000322355
5 *1476:B1 *1353:B 0.000132872
6 *1476:B1 *1476:A2 7.9642e-06
7 *1476:B1 *1485:B1 0
8 *1481:B1 *1485:B1 4.82863e-05
9 *1481:A2 *1481:B1 0.000135856
10 *1485:C1 *1476:B1 2.78133e-05
11 *1564:D *1476:B1 6.30268e-05
12 *1580:D *1476:B1 0.00015997
*RES
1 *1473:X *397:4 1.6 
2 *397:4 *1476:B1 9.275 
3 *397:4 *1481:B1 4.045 
*END

*D_NET *398 0.00128242
*CONN
*I *1478:A1 I *D sky130_fd_sc_hd__mux2_1
*I *1476:A2 I *D sky130_fd_sc_hd__o311a_2
*I *1474:X O *D sky130_fd_sc_hd__o21ba_2
*CAP
1 *1478:A1 0
2 *1476:A2 0.00018478
3 *1474:X 0.000152865
4 *398:6 0.000337645
5 *1476:A2 *1479:B 0.000164874
6 *1476:A2 *1480:A2 4.66108e-05
7 *398:6 *1479:B 0.000227261
8 *1460:A1 *1476:A2 0
9 *1461:A2 *1476:A2 0
10 *1476:B1 *1476:A2 7.9642e-06
11 *1564:D *1476:A2 0.00011381
12 *307:73 *1476:A2 4.66108e-05
*RES
1 *1474:X *398:6 3.775 
2 *398:6 *1476:A2 8.915 
3 *398:6 *1478:A1 1.6 
*END

*D_NET *399 0.00162666
*CONN
*I *1476:A3 I *D sky130_fd_sc_hd__o311a_2
*I *1475:Y O *D sky130_fd_sc_hd__a21oi_2
*CAP
1 *1476:A3 0.000242478
2 *1475:Y 0.000242478
3 *1476:A3 *1353:B 8.57024e-05
4 *1476:A3 *1432:A 8.10701e-05
5 *1476:A3 *1475:A1 0
6 *1476:A3 *1480:A2 0.000235381
7 *1476:A3 *1654:A 2.49909e-05
8 *1460:A2 *1476:A3 0.000501732
9 *1470:A2 *1476:A3 1.30972e-05
10 *1479:A *1476:A3 8.76904e-05
11 *1485:C1 *1476:A3 6.45599e-06
12 *307:73 *1476:A3 0.000105583
*RES
1 *1475:Y *1476:A3 14.55 
*END

*D_NET *400 0.00065683
*CONN
*I *1478:S I *D sky130_fd_sc_hd__mux2_1
*I *1477:X O *D sky130_fd_sc_hd__mux2_1
*CAP
1 *1478:S 0.000232012
2 *1477:X 0.000232012
3 *1478:S *1474:A1 2.75229e-05
4 *1478:S *1474:A2 2.75229e-05
5 *1478:S *1478:A0 7.10578e-05
6 *1478:S *1479:B 6.67017e-05
*RES
1 *1477:X *1478:S 7.115 
*END

*D_NET *401 0.00169148
*CONN
*I *1479:B I *D sky130_fd_sc_hd__nor2_2
*I *1478:X O *D sky130_fd_sc_hd__mux2_1
*CAP
1 *1479:B 0.000366026
2 *1478:X 0.000366026
3 *1479:B *1474:A1 4.82919e-05
4 *1479:B *1474:A2 4.82919e-05
5 *1479:B *1475:A1 0
6 *1479:B *1478:A0 0.000237243
7 *1460:A2 *1479:B 1.15688e-05
8 *1470:A2 *1479:B 0.000117832
9 *1476:A2 *1479:B 0.000164874
10 *1478:S *1479:B 6.67017e-05
11 *1479:A *1479:B 5.53249e-06
12 *283:14 *1479:B 3.1835e-05
13 *398:6 *1479:B 0.000227261
*RES
1 *1478:X *1479:B 15.855 
*END

*D_NET *402 0.00398393
*CONN
*I *1480:A2 I *D sky130_fd_sc_hd__o21a_2
*I *1479:Y O *D sky130_fd_sc_hd__nor2_2
*CAP
1 *1480:A2 0.00121009
2 *1479:Y 0.00121009
3 *1480:A2 *1353:B 1.05984e-05
4 *1480:A2 *1356:A 8.52845e-05
5 *1480:A2 *1371:A 0.00014522
6 *1480:A2 *1432:A 0.00015303
7 *1480:A2 *1640:A 4.41506e-05
8 *1480:A2 *1654:A 4.82863e-05
9 *1480:A2 *582:81 0.00013537
10 *1345:B *1480:A2 7.22329e-05
11 *1346:B *1480:A2 5.71564e-05
12 *1441:A *1480:A2 8.41015e-06
13 *1441:B *1480:A2 0
14 *1460:A2 *1480:A2 7.10577e-05
15 *1461:A2 *1480:A2 8.49205e-05
16 *1476:A1 *1480:A2 0.000121019
17 *1476:A2 *1480:A2 4.66108e-05
18 *1476:A3 *1480:A2 0.000235381
19 *1485:C1 *1480:A2 1.24905e-06
20 *98:28 *1480:A2 7.67415e-06
21 *284:6 *1480:A2 7.85931e-05
22 *284:21 *1480:A2 1.9557e-05
23 *307:73 *1480:A2 0.000121755
24 *368:10 *1480:A2 1.61831e-05
*RES
1 *1479:Y *1480:A2 28.725 
*END

*D_NET *403 0.000437544
*CONN
*I *1485:B1 I *D sky130_fd_sc_hd__o211a_2
*I *1481:X O *D sky130_fd_sc_hd__a21o_2
*CAP
1 *1485:B1 0.000149325
2 *1481:X 0.000149325
3 *1471:A2 *1485:B1 2.75229e-05
4 *1476:B1 *1485:B1 0
5 *1481:A2 *1485:B1 2.75145e-05
6 *1481:B1 *1485:B1 4.82863e-05
7 *1485:C1 *1485:B1 5.53249e-06
8 *1580:D *1485:B1 3.00381e-05
9 *379:10 *1485:B1 0
*RES
1 *1481:X *1485:B1 9.735 
*END

*D_NET *404 0.00298095
*CONN
*I *1484:A2 I *D sky130_fd_sc_hd__o21ai_2
*I *1483:A2 I *D sky130_fd_sc_hd__a21oi_2
*I *1482:Y O *D sky130_fd_sc_hd__nand2_2
*CAP
1 *1484:A2 0.000226255
2 *1483:A2 0.00013272
3 *1482:Y 0.000271872
4 *404:6 0.000630847
5 *1483:A2 *1484:B1 6.28687e-05
6 *1483:A2 *1607:A 6.47516e-05
7 *1484:A2 *1484:B1 0.000424022
8 *1484:A2 *1485:A2 5.34747e-05
9 *1484:A2 *1627:A 1.08758e-05
10 *1484:A2 *563:10 0.000235568
11 *1465:B *1484:A2 0.000301118
12 *1469:A3 *404:6 2.05056e-05
13 *1470:B1 *1484:A2 1.37328e-05
14 *1482:B *1483:A2 0.000120655
15 *1482:B *404:6 0.000339321
16 *369:10 *1484:A2 7.23602e-05
*RES
1 *1482:Y *404:6 5.155 
2 *404:6 *1483:A2 8.12 
3 *404:6 *1484:A2 13.175 
*END

*D_NET *405 0.00134981
*CONN
*I *1484:B1 I *D sky130_fd_sc_hd__o21ai_2
*I *1483:Y O *D sky130_fd_sc_hd__a21oi_2
*CAP
1 *1484:B1 0.000372137
2 *1483:Y 0.000372137
3 *1484:B1 *1484:A1 0
4 *1484:B1 *1607:A 0
5 *1484:B1 *563:10 0
6 *1465:B *1484:B1 2.42236e-05
7 *1483:A2 *1484:B1 6.28687e-05
8 *1484:A2 *1484:B1 0.000424022
9 *369:10 *1484:B1 9.44271e-05
*RES
1 *1483:Y *1484:B1 14.985 
*END

*D_NET *406 0.00164225
*CONN
*I *1485:A2 I *D sky130_fd_sc_hd__o211a_2
*I *1484:Y O *D sky130_fd_sc_hd__o21ai_2
*CAP
1 *1485:A2 0.000379935
2 *1484:Y 0.000379935
3 *1485:A2 *1475:A1 4.82919e-05
4 *1485:A2 *1475:B1 6.78134e-05
5 *1470:B1 *1485:A2 4.25379e-05
6 *1471:A2 *1485:A2 0.000540219
7 *1484:A2 *1485:A2 5.34747e-05
8 *1485:A1 *1485:A2 6.32164e-05
9 *1580:D *1485:A2 2.83518e-05
10 *379:55 *1485:A2 3.84712e-05
*RES
1 *1484:Y *1485:A2 11.945 
*END

*D_NET *407 0.00315712
*CONN
*I *1504:A1 I *D sky130_fd_sc_hd__o21a_2
*I *1502:X O *D sky130_fd_sc_hd__and2_2
*CAP
1 *1504:A1 0.000695008
2 *1502:X 0.000695008
3 *1504:A1 *1439:A 0.000126856
4 *1504:A1 *1439:C 0
5 *1504:A1 *1501:A 0.000551735
6 *1504:A1 *1501:B 6.91678e-05
7 *1504:A1 *1504:A2 0.000452527
8 *1504:A1 *1511:A2 0.000226967
9 *1504:A1 *1634:A 3.74161e-05
10 *1504:A1 *493:12 0.000163199
11 *1601:D *1504:A1 0.000139238
*RES
1 *1502:X *1504:A1 23.685 
*END

*D_NET *408 0.0028922
*CONN
*I *1504:A2 I *D sky130_fd_sc_hd__o21a_2
*I *1503:Y O *D sky130_fd_sc_hd__nor2_2
*CAP
1 *1504:A2 0.000467584
2 *1503:Y 0.000467584
3 *1504:A2 *1426:B 0.000463617
4 *1504:A2 *1501:A 7.67415e-06
5 *1504:A2 *1503:A 2.75229e-05
6 *1504:A2 *1503:B 5.63519e-05
7 *1504:A2 *1512:A 0.000279787
8 *1504:A2 *1634:A 4.82919e-05
9 *1504:A2 *493:12 0.000161529
10 *1504:A1 *1504:A2 0.000452527
11 *1512:B *1504:A2 2.67275e-05
12 *1597:D *1504:A2 0.000433003
*RES
1 *1503:Y *1504:A2 16.76 
*END

*D_NET *409 0.000449992
*CONN
*I *1508:A1 I *D sky130_fd_sc_hd__o21a_2
*I *1506:X O *D sky130_fd_sc_hd__and2_2
*CAP
1 *1508:A1 7.03545e-05
2 *1506:X 7.03545e-05
3 *1508:A1 *1426:A 0.000195482
4 *1508:A1 *1506:B 4.82919e-05
5 *1508:A1 *1508:A2 3.79945e-05
6 *1508:A1 *483:32 2.75145e-05
*RES
1 *1506:X *1508:A1 5.39 
*END

*D_NET *410 0.00107514
*CONN
*I *1508:A2 I *D sky130_fd_sc_hd__o21a_2
*I *1507:Y O *D sky130_fd_sc_hd__nor2_2
*CAP
1 *1508:A2 0.000191911
2 *1507:Y 0.000191911
3 *1508:A2 *1426:A 3.29341e-05
4 *1508:A2 *1426:B 0.000114187
5 *1508:A2 *1506:B 3.00381e-05
6 *1508:A2 *483:32 8.65905e-05
7 *1435:A1 *1508:A2 0.000389572
8 *1508:A1 *1508:A2 3.79945e-05
9 *1512:B *1508:A2 0
*RES
1 *1507:Y *1508:A2 12.645 
*END

*D_NET *411 0.000949688
*CONN
*I *1511:A1 I *D sky130_fd_sc_hd__o21a_2
*I *1509:X O *D sky130_fd_sc_hd__and2_2
*CAP
1 *1511:A1 0.000244164
2 *1509:X 0.000244164
3 *1511:A1 *1502:A 3.45252e-05
4 *1511:A1 *1507:B 1.47347e-05
5 *1511:A1 *1511:A2 8.23457e-05
6 *1511:A1 *483:99 2.49909e-05
7 *1511:A1 *483:108 8.05167e-05
8 *1511:A1 *491:21 0.000112123
9 *1512:B *1511:A1 0.000112123
*RES
1 *1509:X *1511:A1 11.565 
*END

*D_NET *412 0.00125294
*CONN
*I *1511:A2 I *D sky130_fd_sc_hd__o21a_2
*I *1510:Y O *D sky130_fd_sc_hd__nor2_2
*CAP
1 *1511:A2 0.000262142
2 *1510:Y 0.000262142
3 *1511:A2 *1501:B 5.83121e-06
4 *1511:A2 *1502:B 2.0514e-05
5 *1511:A2 *1507:B 7.67415e-06
6 *1511:A2 *1510:B 0.000385327
7 *1504:A1 *1511:A2 0.000226967
8 *1511:A1 *1511:A2 8.23457e-05
*RES
1 *1510:Y *1511:A2 8.825 
*END

*D_NET *413 0.000732839
*CONN
*I *1515:C1 I *D sky130_fd_sc_hd__a221o_2
*I *1513:X O *D sky130_fd_sc_hd__xor2_2
*CAP
1 *1515:C1 0.000259584
2 *1513:X 0.000259584
3 *1515:C1 *1140:A 0
4 *1515:C1 *1317:B 2.45182e-05
5 *1515:C1 *1515:A1 3.45438e-05
6 *1515:C1 *1515:B1 2.49909e-05
7 *1515:C1 *1518:C1 0
8 *1515:C1 *1523:A_N 1.80219e-05
9 *1515:C1 *478:19 0
10 *1515:C1 *533:150 0
11 *1515:A2 *1515:C1 6.9114e-05
12 *1515:B2 *1515:C1 4.24818e-05
*RES
1 *1513:X *1515:C1 11.97 
*END

*D_NET *414 0.00194475
*CONN
*I *1518:C1 I *D sky130_fd_sc_hd__a221o_2
*I *1514:X O *D sky130_fd_sc_hd__xor2_2
*CAP
1 *1518:C1 0.000638561
2 *1514:X 0.000638561
3 *1518:C1 *1317:B 0
4 *1518:C1 *1318:A_N 0
5 *1518:C1 *1513:B 0.000120321
6 *1518:C1 *1515:B1 0.000176647
7 *1518:C1 *1520:B2 4.55864e-06
8 *1518:C1 *1524:C 0
9 *1518:C1 *475:10 5.38001e-05
10 *1518:C1 *477:10 0
11 *1518:C1 *478:19 0
12 *1518:C1 *582:43 0
13 *1518:C1 *589:26 0.000309304
14 *1515:A2 *1518:C1 0
15 *1515:C1 *1518:C1 0
16 *256:12 *1518:C1 2.99518e-06
*RES
1 *1514:X *1518:C1 19.8 
*END

*D_NET *415 0.00105287
*CONN
*I *1523:A_N I *D sky130_fd_sc_hd__and4b_2
*I *1515:X O *D sky130_fd_sc_hd__a221o_2
*CAP
1 *1523:A_N 0.000277325
2 *1515:X 0.000277325
3 *1523:A_N *1515:A1 0.00012657
4 *1523:A_N *1515:B1 4.66108e-05
5 *1523:A_N *426:122 9.30787e-05
6 *1523:A_N *582:43 9.30717e-05
7 *1515:B2 *1523:A_N 0.000120864
8 *1515:C1 *1523:A_N 1.80219e-05
*RES
1 *1515:X *1523:A_N 11.535 
*END

*D_NET *416 0.00197881
*CONN
*I *1523:B I *D sky130_fd_sc_hd__and4b_2
*I *1516:X O *D sky130_fd_sc_hd__o22a_2
*CAP
1 *1523:B 0.000618607
2 *1516:X 0.000618607
3 *1523:B *1516:B1 1.52352e-05
4 *1340:A *1523:B 1.46828e-05
5 *1516:B2 *1523:B 8.6076e-05
6 *1517:B2 *1523:B 0.000121287
7 *1522:B2 *1523:B 0.000383657
8 *280:14 *1523:B 0.000120655
*RES
1 *1516:X *1523:B 11.24 
*END

*D_NET *417 0.000483696
*CONN
*I *1523:C I *D sky130_fd_sc_hd__and4b_2
*I *1517:X O *D sky130_fd_sc_hd__o22a_2
*CAP
1 *1523:C 4.30167e-05
2 *1517:X 4.30167e-05
3 *1523:C *1523:D 4.66108e-05
4 *1523:C *589:32 0.000113809
5 *1517:B2 *1523:C 0.000237243
*RES
1 *1517:X *1523:C 5.375 
*END

*D_NET *418 0.00110999
*CONN
*I *1524:A_N I *D sky130_fd_sc_hd__and3b_2
*I *1518:X O *D sky130_fd_sc_hd__a221o_2
*CAP
1 *1524:A_N 0.000264574
2 *1518:X 0.000264574
3 *1524:A_N *1519:B 4.13462e-05
4 *1524:A_N *1520:B2 8.44437e-05
5 *1524:A_N *1524:B 9.44791e-05
6 *1524:A_N *1524:C 1.7902e-05
7 *1524:A_N *1547:RESET_B 0.0001249
8 *1518:A1 *1524:A_N 3.83194e-05
9 *1520:B1 *1524:A_N 0.000179453
*RES
1 *1518:X *1524:A_N 12.645 
*END

*D_NET *419 0.000116037
*CONN
*I *1520:C1 I *D sky130_fd_sc_hd__o221a_2
*I *1519:Y O *D sky130_fd_sc_hd__xnor2_2
*CAP
1 *1520:C1 9.73191e-06
2 *1519:Y 9.73191e-06
3 *1520:C1 *1520:B2 4.82863e-05
4 *1520:C1 *1669:clk 4.82863e-05
*RES
1 *1519:Y *1520:C1 3.65 
*END

*D_NET *420 0.000974191
*CONN
*I *1524:B I *D sky130_fd_sc_hd__and3b_2
*I *1520:X O *D sky130_fd_sc_hd__o221a_2
*CAP
1 *1524:B 0.00028633
2 *1520:X 0.00028633
3 *1524:B *1519:B 0
4 *1524:B *1520:B2 8.40269e-05
5 *1524:B *1524:C 7.06865e-05
6 *1524:B *1669:clk 2.32597e-05
7 *1524:B *581:108 8.68964e-06
8 *1216:B2 *1524:B 1.0183e-05
9 *1218:C1 *1524:B 3.72149e-05
10 *1518:A1 *1524:B 2.30292e-05
11 *1524:A_N *1524:B 9.44791e-05
12 *122:25 *1524:B 4.99619e-05
*RES
1 *1520:X *1524:B 11.52 
*END

*D_NET *421 9.31325e-05
*CONN
*I *1522:C1 I *D sky130_fd_sc_hd__a221oi_2
*I *1521:X O *D sky130_fd_sc_hd__xor2_2
*CAP
1 *1522:C1 2.24203e-05
2 *1521:X 2.24203e-05
3 *1522:C1 *588:22 4.82919e-05
*RES
1 *1521:X *1522:C1 3.65 
*END

*D_NET *422 0.00191976
*CONN
*I *1523:D I *D sky130_fd_sc_hd__and4b_2
*I *1522:Y O *D sky130_fd_sc_hd__a221oi_2
*CAP
1 *1523:D 0.00026175
2 *1522:Y 0.00026175
3 *1523:D *426:109 0.000157329
4 *1523:D *426:122 0.000164686
5 *1523:D *473:42 0.000341885
6 *1523:D *582:37 4.92062e-05
7 *1523:D *582:43 0.000311817
8 *1523:D *587:26 4.85494e-05
9 *1523:D *587:38 7.67415e-06
10 *1523:D *588:22 0.000119756
11 *1523:D *589:32 4.66108e-05
12 *1517:B2 *1523:D 0.000102137
13 *1523:C *1523:D 4.66108e-05
*RES
1 *1522:Y *1523:D 15.915 
*END

*D_NET *423 0.00181348
*CONN
*I *1524:C I *D sky130_fd_sc_hd__and3b_2
*I *1523:X O *D sky130_fd_sc_hd__and4b_2
*CAP
1 *1524:C 0.000474821
2 *1523:X 0.000474821
3 *1524:C *1518:A2 0.00019304
4 *1524:C *1519:A 0.000143345
5 *1524:C *1547:RESET_B 6.06425e-05
6 *1524:C *475:10 0
7 *1524:C *581:108 5.38986e-05
8 *1524:C *589:32 0.000163199
9 *1515:A2 *1524:C 8.53113e-06
10 *1518:C1 *1524:C 0
11 *1520:B1 *1524:C 0.000152595
12 *1524:A_N *1524:C 1.7902e-05
13 *1524:B *1524:C 7.06865e-05
*RES
1 *1523:X *1524:C 16.6238 
*END

*D_NET *424 0.0198437
*CONN
*I *1586:CLK I *D sky130_fd_sc_hd__dfxtp_2
*I *1597:CLK I *D sky130_fd_sc_hd__dfxtp_2
*I *1602:CLK I *D sky130_fd_sc_hd__dfxtp_2
*I *1598:CLK I *D sky130_fd_sc_hd__dfxtp_2
*I *1601:CLK I *D sky130_fd_sc_hd__dfxtp_2
*I *1583:CLK I *D sky130_fd_sc_hd__dfxtp_2
*I *1584:CLK I *D sky130_fd_sc_hd__dfxtp_2
*I *1585:CLK I *D sky130_fd_sc_hd__dfxtp_2
*I *1600:CLK I *D sky130_fd_sc_hd__dfxtp_2
*I *1599:CLK I *D sky130_fd_sc_hd__dfxtp_2
*I *1587:CLK I *D sky130_fd_sc_hd__dfxtp_2
*I *1588:CLK I *D sky130_fd_sc_hd__dfxtp_2
*I *1594:CLK I *D sky130_fd_sc_hd__dfxtp_2
*I *1595:CLK I *D sky130_fd_sc_hd__dfxtp_2
*I *1593:CLK I *D sky130_fd_sc_hd__dfxtp_2
*I *1596:CLK I *D sky130_fd_sc_hd__dfxtp_2
*I *1592:CLK I *D sky130_fd_sc_hd__dfxtp_2
*I *1589:CLK I *D sky130_fd_sc_hd__dfxtp_2
*I *1591:CLK I *D sky130_fd_sc_hd__dfxtp_2
*I *1590:CLK I *D sky130_fd_sc_hd__dfxtp_2
*I *1525:GCLK O *D sky130_fd_sc_hd__dlclkp_2
*CAP
1 *1586:CLK 6.57038e-05
2 *1597:CLK 0
3 *1602:CLK 0.00046619
4 *1598:CLK 0
5 *1601:CLK 0.000268587
6 *1583:CLK 0.000117121
7 *1584:CLK 7.7004e-05
8 *1585:CLK 0
9 *1600:CLK 0
10 *1599:CLK 0
11 *1587:CLK 0
12 *1588:CLK 0
13 *1594:CLK 0.000144915
14 *1595:CLK 5.28764e-05
15 *1593:CLK 0
16 *1596:CLK 0.00013316
17 *1592:CLK 8.36297e-05
18 *1589:CLK 0
19 *1591:CLK 0.000294486
20 *1590:CLK 0
21 *1525:GCLK 8.11202e-05
22 *424:219 0.000838946
23 *424:206 0.000477605
24 *424:169 0.00045366
25 *424:160 0.000448757
26 *424:147 0.000253027
27 *424:145 0.000578717
28 *424:136 0.000246325
29 *424:134 0.000289225
30 *424:130 0.000472588
31 *424:123 0.000447123
32 *424:116 0.000285359
33 *424:88 0.000277484
34 *424:81 0.00022422
35 *424:53 0.00021679
36 *424:51 0.000505845
37 *424:49 0.000687788
38 *424:20 0.000506122
39 *424:14 0.000377389
40 *424:12 0.0005126
41 *1583:CLK *1371:A 6.96011e-05
42 *1583:CLK *1655:A 5.55344e-05
43 *1583:CLK *494:12 0
44 *1584:CLK *494:8 8.69182e-05
45 *1584:CLK *495:6 3.45679e-05
46 *1591:CLK *1376:A2 4.66108e-05
47 *1591:CLK *1494:A 0.000161035
48 *1591:CLK *528:10 0.000106997
49 *1591:CLK *528:42 5.27193e-05
50 *1592:CLK *1426:A 0.000363755
51 *1592:CLK *502:26 8.89491e-05
52 *1594:CLK *1376:A2 0.000229697
53 *1594:CLK *1426:B 0.000142998
54 *1594:CLK *484:10 0.000176503
55 *1595:CLK *1497:B 0.000103192
56 *1596:CLK *1426:A 0.000331549
57 *1596:CLK *502:26 8.67476e-05
58 *1601:CLK *1438:B 4.82919e-05
59 *1601:CLK *1438:C 8.65961e-05
60 *1601:CLK *1454:B 4.31921e-05
61 *1601:CLK *1648:A 2.25079e-05
62 *1601:CLK *489:14 9.47454e-05
63 *1601:CLK *489:23 0.000113282
64 *1601:CLK *518:26 0
65 *1602:CLK *1426:B 9.66106e-05
66 *424:12 *1434:A 6.10014e-05
67 *424:12 *1493:A 6.28765e-05
68 *424:20 *585:145 3.03775e-05
69 *424:49 *1430:B 0.000135801
70 *424:49 *1434:A 0
71 *424:49 *1622:A 9.98667e-05
72 *424:49 *1659:A 0.000102289
73 *424:51 *1434:A 0
74 *424:51 *1497:A 2.53191e-06
75 *424:51 *1622:A 0.000301479
76 *424:81 *1376:A2 1.83847e-05
77 *424:81 *1497:A 6.4929e-05
78 *424:81 *484:10 2.75229e-05
79 *424:88 *1376:A2 0.000101028
80 *424:88 *484:10 0.000119907
81 *424:123 *1434:B 0.000119105
82 *424:123 *498:6 7.25532e-05
83 *424:134 *1440:B 0.00010901
84 *424:134 *1490:A 1.74532e-05
85 *424:134 *1490:B 6.65903e-05
86 *424:134 *1650:A 4.76263e-05
87 *424:134 *1657:A 0.000152751
88 *424:147 *1454:B 5.13511e-05
89 *424:147 *1648:A 2.4997e-05
90 *424:160 *1454:B 0.000187179
91 *424:160 *1472:A 0.000116853
92 *424:169 *1472:B 2.85869e-05
93 *424:169 *494:8 0.000158965
94 *424:169 *495:6 2.20732e-05
95 *424:169 *495:8 6.35069e-05
96 *424:206 *1426:A 0
97 *424:206 *1440:B 6.20999e-05
98 *424:206 *1650:A 0.000124383
99 *424:206 *485:10 5.76993e-05
100 *424:219 *1376:A2 0
101 *424:219 *1498:A 0
102 *424:219 *1504:B1 0
103 *424:219 *485:10 0.000138551
104 *1367:A2 *1591:CLK 0.000115888
105 *1435:A2 *1595:CLK 0.000185405
106 *1435:B1 *1586:CLK 0.000138719
107 *1435:B1 *424:123 0.000190464
108 *1435:B1 *424:130 0.000233156
109 *1435:B2 *424:134 0
110 *1436:A1 *1591:CLK 0.000155348
111 *1436:B1 *424:12 4.99619e-05
112 *1437:A *424:51 0
113 *1437:B *424:51 0
114 *1439:D *1601:CLK 0
115 *1440:C *424:145 0.000265752
116 *1571:D *424:20 0.000157325
117 *1575:D *424:49 0.000169357
118 *1585:D *424:169 0.000128642
119 *1587:D *424:130 7.36892e-05
120 *1588:D *424:123 0.000200765
121 *1589:D *424:14 8.76265e-05
122 *1590:D *1591:CLK 9.92356e-05
123 *1591:D *1591:CLK 1.43717e-05
124 *1592:D *1592:CLK 7.82691e-05
125 *1592:D *424:51 0
126 *1593:D *424:88 5.14416e-05
127 *1594:D *424:219 0
128 *1597:D *1602:CLK 0.000480698
129 *1599:D *424:145 0.000106605
130 *1647:A *1602:CLK 3.46272e-05
131 *1647:A *424:219 0.000182563
132 *98:28 *424:14 0.000159607
133 *98:28 *424:20 0.000387008
134 *98:28 *424:49 0.000153482
135 *288:38 *1591:CLK 0.000181015
136 *288:38 *424:20 0.000200419
137 *300:22 *1591:CLK 6.80757e-06
138 *300:22 *424:20 2.07977e-05
139 *381:22 *424:145 2.49909e-05
140 *381:22 *424:147 0.00011379
141 *381:22 *424:160 0.000119552
*RES
1 *1525:GCLK *424:12 7.43 
2 *424:12 *424:14 3.21 
3 *424:14 *424:20 7.955 
4 *424:20 *1590:CLK 3.6 
5 *424:20 *1591:CLK 11.745 
6 *424:14 *1589:CLK 1.6 
7 *424:12 *424:49 8.705 
8 *424:49 *424:51 6.735 
9 *424:51 *424:53 2 
10 *424:53 *1592:CLK 5.17 
11 *424:53 *1596:CLK 5.17 
12 *424:51 *424:81 4.64 
13 *424:81 *1593:CLK 1.6 
14 *424:81 *424:88 2.52 
15 *424:88 *1595:CLK 7.745 
16 *424:88 *1594:CLK 6.655 
17 *424:49 *424:116 2.9 
18 *424:116 *1588:CLK 1.6 
19 *424:116 *424:123 5.97 
20 *424:123 *1587:CLK 1.6 
21 *424:123 *424:130 4.59 
22 *424:130 *424:134 6.185 
23 *424:134 *424:136 2 
24 *424:136 *1599:CLK 1.6 
25 *424:136 *424:145 7.28 
26 *424:145 *424:147 1.89 
27 *424:147 *1600:CLK 3.6 
28 *424:147 *424:160 6.635 
29 *424:160 *1585:CLK 1.6 
30 *424:160 *424:169 4.95 
31 *424:169 *1584:CLK 3.445 
32 *424:169 *1583:CLK 8 
33 *424:145 *1601:CLK 9.51 
34 *424:134 *424:206 2.145 
35 *424:206 *1598:CLK 3.6 
36 *424:206 *424:219 9.05 
37 *424:219 *1602:CLK 9.94 
38 *424:219 *1597:CLK 1.6 
39 *424:130 *1586:CLK 3.085 
*END

*D_NET *425 0.0136279
*CONN
*I *1571:CLK I *D sky130_fd_sc_hd__dfxtp_2
*I *1567:CLK I *D sky130_fd_sc_hd__dfxtp_2
*I *1569:CLK I *D sky130_fd_sc_hd__dfxtp_2
*I *1564:CLK I *D sky130_fd_sc_hd__dfxtp_2
*I *1565:CLK I *D sky130_fd_sc_hd__dfxtp_2
*I *1566:CLK I *D sky130_fd_sc_hd__dfxtp_2
*I *1568:CLK I *D sky130_fd_sc_hd__dfxtp_2
*I *1570:CLK I *D sky130_fd_sc_hd__dfxtp_2
*I *1572:CLK I *D sky130_fd_sc_hd__dfxtp_2
*I *1526:GCLK O *D sky130_fd_sc_hd__dlclkp_2
*CAP
1 *1571:CLK 0
2 *1567:CLK 0.00027406
3 *1569:CLK 0
4 *1564:CLK 0.00024495
5 *1565:CLK 8.5765e-05
6 *1566:CLK 1.77753e-05
7 *1568:CLK 5.49814e-05
8 *1570:CLK 0.000333519
9 *1572:CLK 0.000255501
10 *1526:GCLK 0.000162127
11 *425:96 0.000723058
12 *425:83 0.000892284
13 *425:64 0.000845454
14 *425:58 0.00050032
15 *425:54 0.000705419
16 *425:42 0.000364455
17 *425:27 0.000533868
18 *425:10 0.000492871
19 *1564:CLK *532:100 1.03323e-05
20 *1567:CLK *1350:B 0.000120012
21 *1567:CLK *1493:A 4.82919e-05
22 *1567:CLK *1660:A 0.000106332
23 *1568:CLK *1363:B1 8.70923e-05
24 *1568:CLK *456:29 1.26548e-05
25 *1570:CLK *1369:A2 3.24131e-05
26 *1570:CLK *460:51 0.000195351
27 *1570:CLK *461:28 0
28 *1570:CLK *531:10 0.000116151
29 *1570:CLK *531:12 9.50342e-06
30 *1570:CLK *533:46 5.05521e-05
31 *1570:CLK *569:62 8.8266e-05
32 *1572:CLK *1369:A1 1.39525e-05
33 *1572:CLK *460:51 1.88153e-05
34 *425:27 *585:145 0.000308226
35 *425:42 *1617:A 0.00023468
36 *425:42 *585:145 0.000608349
37 *425:54 *1429:A 0
38 *425:54 *1618:A 8.73147e-06
39 *425:54 *532:70 9.9542e-05
40 *425:54 *534:14 9.14049e-05
41 *425:54 *585:145 3.35473e-05
42 *425:58 *1618:A 1.39456e-05
43 *425:58 *532:70 2.85364e-05
44 *425:58 *532:88 0.000327717
45 *425:64 *457:8 7.35813e-05
46 *425:64 *457:27 0.000189936
47 *425:64 *537:24 2.293e-05
48 *425:83 *1363:B1 7.1301e-06
49 *425:83 *455:14 1.47256e-05
50 *425:83 *456:53 3.33094e-05
51 *425:96 *454:14 1.13785e-05
52 *425:96 *559:31 7.07801e-05
53 *1179:A *425:96 0.000113797
54 *1179:B *1565:CLK 6.40411e-05
55 *1180:B *1565:CLK 6.28687e-05
56 *1347:B *425:64 4.77719e-05
57 *1347:B *425:83 0.000158982
58 *1349:B *425:58 3.61388e-06
59 *1351:B *425:64 6.75602e-05
60 *1355:A1 *1565:CLK 3.09164e-05
61 *1355:A1 *425:96 0.000266618
62 *1355:A2 *1564:CLK 0.000350189
63 *1359:A2 *425:83 4.40325e-06
64 *1359:A2 *425:96 1.46908e-05
65 *1359:B1 *425:83 0.000231706
66 *1360:B *425:83 0.000396209
67 *1361:B1 *425:83 6.90876e-05
68 *1364:A2 *1567:CLK 7.61024e-05
69 *1372:B *1572:CLK 0.000112907
70 *1378:A2 *1570:CLK 2.82846e-05
71 *1378:A2 *425:10 0
72 *1378:A2 *425:27 0.000121817
73 *1378:A2 *425:42 3.57349e-05
74 *1565:D *1565:CLK 1.94636e-05
75 *1566:D *425:96 6.01366e-05
76 *1569:D *425:64 8.84163e-05
77 *1571:D *425:54 8.58415e-05
78 *1578:D *1570:CLK 1.26548e-05
79 *98:28 *425:42 0.000168165
80 *98:28 *425:54 0.000190584
81 *154:10 *1565:CLK 5.03211e-05
82 *154:10 *425:96 7.12228e-06
83 *173:33 *425:10 6.40892e-05
84 *286:16 *1568:CLK 0.000137571
85 *286:16 *425:83 0.00015909
86 *287:21 *425:58 0.000106177
87 *289:12 *1567:CLK 5.74791e-05
88 *291:16 *425:54 2.68107e-05
89 *297:45 *1572:CLK 2.91921e-05
90 *297:45 *425:10 0.000101586
91 *299:8 *425:27 5.7594e-05
92 *300:22 *1567:CLK 4.82919e-05
93 *300:22 *425:54 0.000271028
94 *307:22 *425:83 5.43631e-05
*RES
1 *1526:GCLK *425:10 6.12 
2 *425:10 *1572:CLK 7.245 
3 *425:10 *425:27 4.865 
4 *425:27 *1570:CLK 12.62 
5 *425:27 *425:42 5.625 
6 *425:42 *425:54 8.33 
7 *425:54 *425:58 6.185 
8 *425:58 *425:64 8.675 
9 *425:64 *1568:CLK 5.49 
10 *425:64 *425:83 12.905 
11 *425:83 *1566:CLK 2.215 
12 *425:83 *425:96 8.72 
13 *425:96 *1565:CLK 6 
14 *425:96 *1564:CLK 7.86 
15 *425:58 *1569:CLK 1.6 
16 *425:54 *1567:CLK 9.48 
17 *425:42 *1571:CLK 1.6 
*END

*D_NET *426 0.0237617
*CONN
*I *1557:CLK I *D sky130_fd_sc_hd__dfxtp_2
*I *1550:CLK I *D sky130_fd_sc_hd__dfrtp_2
*I *1558:CLK I *D sky130_fd_sc_hd__dfxtp_2
*I *1562:CLK I *D sky130_fd_sc_hd__dfxtp_2
*I *1559:CLK I *D sky130_fd_sc_hd__dfxtp_2
*I *1560:CLK I *D sky130_fd_sc_hd__dfxtp_2
*I *1561:CLK I *D sky130_fd_sc_hd__dfxtp_2
*I *1563:CLK I *D sky130_fd_sc_hd__dfxtp_2
*I *1554:CLK I *D sky130_fd_sc_hd__dfxtp_2
*I *1546:CLK I *D sky130_fd_sc_hd__dfrtp_2
*I *1556:CLK I *D sky130_fd_sc_hd__dfxtp_2
*I *1549:CLK I *D sky130_fd_sc_hd__dfrtp_2
*I *1548:CLK I *D sky130_fd_sc_hd__dfrtp_2
*I *1547:CLK I *D sky130_fd_sc_hd__dfrtp_2
*I *1555:CLK I *D sky130_fd_sc_hd__dfxtp_2
*I *1553:CLK I *D sky130_fd_sc_hd__dfrtp_2
*I *1552:CLK I *D sky130_fd_sc_hd__dfrtp_2
*I *1551:CLK I *D sky130_fd_sc_hd__dfrtp_2
*I *1527:GCLK O *D sky130_fd_sc_hd__dlclkp_2
*CAP
1 *1557:CLK 0.0004191
2 *1550:CLK 0
3 *1558:CLK 0
4 *1562:CLK 0
5 *1559:CLK 0.000575915
6 *1560:CLK 0
7 *1561:CLK 0.000155692
8 *1563:CLK 0
9 *1554:CLK 0
10 *1546:CLK 0.000169161
11 *1556:CLK 2.61242e-05
12 *1549:CLK 3.3955e-05
13 *1548:CLK 0.000336306
14 *1547:CLK 0.000290373
15 *1555:CLK 0.000407479
16 *1553:CLK 0
17 *1552:CLK 3.1816e-05
18 *1551:CLK 3.7107e-05
19 *1527:GCLK 0
20 *426:184 0.000838025
21 *426:165 0.000604281
22 *426:142 0.000508278
23 *426:136 0.00058878
24 *426:128 0.000500681
25 *426:124 0.000559425
26 *426:122 0.000754855
27 *426:109 0.000663073
28 *426:74 0.0010257
29 *426:70 0.00074299
30 *426:64 0.000863279
31 *426:58 0.000420081
32 *426:36 0.000638422
33 *426:25 0.000835868
34 *426:14 0.000694824
35 *426:8 0.000448864
36 *426:6 0.000539556
37 *1546:CLK *1157:A 0.000120186
38 *1546:CLK *1297:A 0.000142492
39 *1547:CLK *1669:clk 0.000237055
40 *1548:CLK *1548:RESET_B 5.69927e-05
41 *1548:CLK *1669:clk 2.60541e-05
42 *1548:CLK *588:18 0.000237213
43 *1549:CLK *1162:A 9.53428e-06
44 *1552:CLK *1168:A 4.88555e-05
45 *1555:CLK *1137:A 5.78055e-05
46 *1555:CLK *1206:A 1.60204e-05
47 *1555:CLK *1219:A_N 0
48 *1555:CLK *1221:B1 0
49 *1555:CLK *1552:RESET_B 0
50 *1555:CLK *474:10 3.32593e-05
51 *1555:CLK *537:160 0
52 *1555:CLK *586:64 0.00030788
53 *1555:CLK *586:68 6.83447e-05
54 *1557:CLK *1298:A 1.52342e-05
55 *1557:CLK *1310:A 3.25831e-05
56 *1557:CLK *476:12 4.82919e-05
57 *1557:CLK *533:116 7.25401e-05
58 *1557:CLK *535:82 6.91715e-05
59 *1557:CLK *538:66 1.17036e-05
60 *1559:CLK *1322:A 9.02174e-05
61 *1559:CLK *1323:A 0
62 *1559:CLK *1339:A 3.50152e-06
63 *1559:CLK *478:6 5.83121e-06
64 *1559:CLK *479:8 8.73389e-06
65 *1559:CLK *536:16 0.000662704
66 *426:14 *1166:B1 1.83756e-05
67 *426:25 *1166:B1 0.000116912
68 *426:25 *1551:RESET_B 0.000195674
69 *426:25 *470:8 7.9205e-06
70 *426:25 *580:36 9.26565e-05
71 *426:36 *1168:A 8.53113e-06
72 *426:36 *1552:RESET_B 0
73 *426:36 *471:33 0
74 *426:58 *1550:RESET_B 4.51129e-05
75 *426:58 *469:10 2.76356e-05
76 *426:58 *577:61 0.000444458
77 *426:64 *1217:A2 4.66521e-05
78 *426:64 *577:61 0.000308719
79 *426:70 *1162:A 5.78185e-05
80 *426:70 *468:6 4.49945e-05
81 *426:70 *577:61 0
82 *426:74 *1162:A 0.000289252
83 *426:109 *1513:B 0
84 *426:109 *1519:B 0
85 *426:109 *582:18 9.14049e-05
86 *426:109 *582:37 0.000374807
87 *426:109 *582:43 1.97442e-05
88 *426:122 *582:43 0.000244618
89 *426:142 *1297:A 6.74079e-05
90 *426:184 *536:16 3.3795e-05
91 *1163:A *426:70 6.02202e-05
92 *1167:A *1557:CLK 5.33085e-05
93 *1167:A *426:8 0.000277079
94 *1167:A *426:14 4.2021e-05
95 *1167:B *1557:CLK 2.14129e-05
96 *1167:B *426:8 0.000268548
97 *1167:B *426:14 0.000135415
98 *1170:B *426:36 4.76581e-05
99 *1171:B *1552:CLK 0
100 *1171:B *426:36 0
101 *1215:C1 *426:70 0
102 *1216:A1 *426:64 8.8266e-05
103 *1216:A1 *426:109 6.14602e-05
104 *1217:B2 *426:58 8.65348e-05
105 *1217:B2 *426:64 0.000125646
106 *1217:C1 *426:70 0
107 *1221:B2 *1555:CLK 0
108 *1297:B *1547:CLK 2.95027e-05
109 *1297:B *426:136 0.000108791
110 *1297:B *426:142 0
111 *1307:B1 *1557:CLK 1.82907e-05
112 *1308:A2 *1557:CLK 0.000157535
113 *1308:B1 *1557:CLK 5.23362e-05
114 *1314:B1 *1557:CLK 2.75229e-05
115 *1315:A3 *1557:CLK 0
116 *1323:B *1559:CLK 2.97004e-06
117 *1329:A1 *1559:CLK 1.12643e-05
118 *1329:A2 *1559:CLK 9.96848e-05
119 *1329:C1 *1559:CLK 4.82863e-05
120 *1332:A2 *426:184 5.7168e-05
121 *1333:B *426:184 2.0474e-05
122 *1337:A1 *426:165 0
123 *1338:A *426:136 0.000153263
124 *1338:A *426:165 0.00017555
125 *1339:B *426:165 0
126 *1339:B *426:184 0
127 *1339:C *426:184 0
128 *1341:B1 *426:136 0.00019683
129 *1343:A *426:142 3.09164e-05
130 *1343:B *426:136 0
131 *1522:A1 *426:109 0.000179569
132 *1522:A1 *426:122 0.000132096
133 *1522:B2 *426:122 0
134 *1523:A_N *426:122 9.30787e-05
135 *1523:D *426:109 0.000157329
136 *1523:D *426:122 0.000164686
137 *1547:D *1547:CLK 6.29441e-05
138 *1548:D *1548:CLK 7.08493e-05
139 *1560:D *1559:CLK 1.43717e-05
140 *1561:D *1561:CLK 0.000200164
141 *1562:D *426:124 8.89542e-05
142 *1562:D *426:184 0.000156371
143 *1563:D *426:136 3.11187e-05
144 *1563:D *426:142 2.86975e-05
145 *1644:A *1548:CLK 0.000150366
146 *122:10 *1557:CLK 2.75538e-05
147 *123:14 *426:122 0
148 *125:10 *426:122 6.02202e-05
149 *144:10 *426:14 9.17274e-05
150 *246:10 *1557:CLK 0.000106465
151 *251:43 *1556:CLK 4.66108e-05
152 *252:25 *1557:CLK 0.000135144
153 *256:21 *1559:CLK 5.51245e-05
154 *266:10 *1559:CLK 0.000116165
155 *274:8 *426:184 0.000122801
156 *274:10 *426:165 0.000166925
157 *274:10 *426:184 0.000133046
158 *280:14 *426:122 8.26527e-05
*RES
1 *1527:GCLK *426:6 3.6 
2 *426:6 *426:8 3.42 
3 *426:8 *426:14 4.085 
4 *426:14 *1551:CLK 2.215 
5 *426:14 *426:25 9.35 
6 *426:25 *1552:CLK 4.215 
7 *426:25 *426:36 3.42 
8 *426:36 *1553:CLK 3.6 
9 *426:36 *1555:CLK 10.53 
10 *426:8 *426:58 8.66 
11 *426:58 *426:64 6.695 
12 *426:64 *426:70 6.155 
13 *426:70 *426:74 6.935 
14 *426:74 *1547:CLK 8.61 
15 *426:74 *1548:CLK 10.605 
16 *426:70 *1549:CLK 2.215 
17 *426:64 *426:109 8.265 
18 *426:109 *1556:CLK 4.05 
19 *426:109 *426:122 10.01 
20 *426:122 *426:124 7.35 
21 *426:124 *426:128 2.795 
22 *426:128 *426:136 7.175 
23 *426:136 *426:142 8.015 
24 *426:142 *1546:CLK 7.785 
25 *426:142 *1554:CLK 3.6 
26 *426:136 *1563:CLK 1.6 
27 *426:128 *426:165 4.185 
28 *426:165 *1561:CLK 6.465 
29 *426:165 *426:184 7.91 
30 *426:184 *1560:CLK 1.6 
31 *426:184 *1559:CLK 18.065 
32 *426:124 *1562:CLK 1.6 
33 *426:122 *1558:CLK 1.6 
34 *426:58 *1550:CLK 1.6 
35 *426:6 *1557:CLK 13.08 
*END

*D_NET *427 0.00392657
*CONN
*I *1668:addr[6] I *D tt_rom
*I *1156:Y O *D sky130_fd_sc_hd__nand2_2
*CAP
1 *1668:addr[6] 0.00151815
2 *1156:Y 0.00151815
3 *1668:addr[6] *1668:addr[4] 0.000393224
4 *1668:addr[6] *1668:addr[5] 1.41131e-05
5 *1668:addr[6] *1668:addr[7] 0.000376987
6 *1668:addr[6] *1668:addr[10] 1.11304e-05
7 *1175:B *1668:addr[6] 9.48157e-05
*RES
1 *1156:Y *1668:addr[6] 29.215 
*END

*D_NET *428 0.00295803
*CONN
*I *1668:addr[7] I *D tt_rom
*I *1175:X O *D sky130_fd_sc_hd__xor2_2
*CAP
1 *1668:addr[7] 0.000492545
2 *1175:X 0.000492545
3 *1668:addr[7] *1668:addr[1] 0.000166049
4 *1668:addr[7] *1668:addr[8] 0.000551179
5 *1668:addr[7] *1668:addr[10] 0.000878726
6 *1668:addr[6] *1668:addr[7] 0.000376987
*RES
1 *1175:X *1668:addr[7] 18.615 
*END

*D_NET *429 0.00690346
*CONN
*I *1668:addr[8] I *D tt_rom
*I *1180:X O *D sky130_fd_sc_hd__xor2_2
*CAP
1 *1668:addr[8] 0.00105194
2 *1180:X 0.00105194
3 *1668:addr[8] *1155:B1_N 9.81827e-05
4 *1668:addr[8] *1173:B 0.000122797
5 *1668:addr[8] *1668:addr[0] 0.000353384
6 *1668:addr[8] *1668:addr[1] 0.000356306
7 *1668:addr[8] *1668:addr[9] 6.37345e-05
8 *1668:addr[8] *1668:addr[10] 0.000498446
9 *1668:addr[8] *432:30 0.00206882
10 *1175:A *1668:addr[8] 0.000318091
11 *1212:C *1668:addr[8] 2.30292e-05
12 *1668:addr[7] *1668:addr[8] 0.000551179
13 *138:12 *1668:addr[8] 7.65972e-05
14 *149:10 *1668:addr[8] 0.000269012
*RES
1 *1180:X *1668:addr[8] 31.5784 
*END

*D_NET *430 0.00718507
*CONN
*I *1668:addr[9] I *D tt_rom
*I *1185:Y O *D sky130_fd_sc_hd__xnor2_2
*CAP
1 *1668:addr[9] 0.00182248
2 *1185:Y 0.00182248
3 *1668:addr[9] *1668:addr[1] 0.000611392
4 *1668:addr[9] *1668:addr[10] 9.76408e-06
5 *1668:addr[9] *432:30 6.92054e-05
6 *1668:addr[9] *572:50 7.33596e-05
7 *1668:addr[9] *582:81 0.00271266
8 *1180:B *1668:addr[9] 0
9 *1668:addr[8] *1668:addr[9] 6.37345e-05
*RES
1 *1185:Y *1668:addr[9] 15.0431 
*END

*D_NET *431 0.0083905
*CONN
*I *1668:addr[10] I *D tt_rom
*I *1191:X O *D sky130_fd_sc_hd__xor2_2
*CAP
1 *1668:addr[10] 0.00230327
2 *1191:X 0.00230327
3 *1668:addr[10] *1155:B1_N 0.000150459
4 *1668:addr[10] *1173:B 0.000123955
5 *1668:addr[10] *1668:addr[1] 0.000181159
6 *1668:addr[10] *1668:addr[3] 0.00016569
7 *1668:addr[10] *1668:addr[11] 0.000143221
8 *1668:addr[10] *432:30 0.000673103
9 *1175:A *1668:addr[10] 3.90495e-05
10 *1212:C *1668:addr[10] 0.000279787
11 *1668:addr[6] *1668:addr[10] 1.11304e-05
12 *1668:addr[7] *1668:addr[10] 0.000878726
13 *1668:addr[8] *1668:addr[10] 0.000498446
14 *1668:addr[9] *1668:addr[10] 9.76408e-06
15 *138:12 *1668:addr[10] 0.000203178
16 *156:12 *1668:addr[10] 0.000426295
*RES
1 *1191:X *1668:addr[10] 43.815 
*END

*D_NET *432 0.00974475
*CONN
*I *1668:addr[11] I *D tt_rom
*I *1196:X O *D sky130_fd_sc_hd__xor2_2
*CAP
1 *1668:addr[11] 0.000125962
2 *1196:X 0.00233453
3 *432:30 0.00246049
4 *432:30 *1191:A 4.66108e-05
5 *432:30 *1668:addr[1] 0.00015879
6 *432:30 *1668:addr[3] 8.92483e-05
7 *1187:B1 *432:30 0.000246673
8 *1191:B *432:30 7.25921e-05
9 *1436:B1 *432:30 8.57024e-05
10 *1668:addr[8] *432:30 0.00206882
11 *1668:addr[9] *432:30 6.92054e-05
12 *1668:addr[10] *1668:addr[11] 0.000143221
13 *1668:addr[10] *432:30 0.000673103
14 *139:6 *432:30 0.000164874
15 *149:10 *432:30 0.000267331
16 *156:12 *432:30 0.000462929
17 *163:12 *432:30 0.000274659
*RES
1 *1196:X *432:30 49.92 
2 *432:30 *1668:addr[11] 2.01 
*END

*D_NET *433 0.0289884
*CONN
*I *1669:clk I *D incrementer
*I *1528:CLK I *D sky130_fd_sc_hd__dfxtp_2
*I *1581:CLK I *D sky130_fd_sc_hd__dfxtp_2
*I *1582:CLK I *D sky130_fd_sc_hd__dfxtp_2
*I *1527:CLK I *D sky130_fd_sc_hd__dlclkp_2
*I *1576:CLK I *D sky130_fd_sc_hd__dfxtp_2
*I *1580:CLK I *D sky130_fd_sc_hd__dfxtp_2
*I *1579:CLK I *D sky130_fd_sc_hd__dfxtp_2
*I *1573:CLK I *D sky130_fd_sc_hd__dfxtp_2
*I *1574:CLK I *D sky130_fd_sc_hd__dfxtp_2
*I *1526:CLK I *D sky130_fd_sc_hd__dlclkp_2
*I *602:CLK I *D sky130_fd_sc_hd__dlclkp_2
*I *1577:CLK I *D sky130_fd_sc_hd__dfxtp_2
*I *1575:CLK I *D sky130_fd_sc_hd__dfxtp_2
*I *1529:CLK I *D sky130_fd_sc_hd__dfxtp_2
*I *1578:CLK I *D sky130_fd_sc_hd__dfxtp_2
*I *1525:CLK I *D sky130_fd_sc_hd__dlclkp_2
*I *1647:X O *D sky130_fd_sc_hd__clkbuf_16
*CAP
1 *1669:clk 0.00170981
2 *1528:CLK 0
3 *1581:CLK 0
4 *1582:CLK 0
5 *1527:CLK 0.00248462
6 *1576:CLK 0
7 *1580:CLK 7.68645e-05
8 *1579:CLK 0
9 *1573:CLK 2.89741e-05
10 *1574:CLK 8.08399e-05
11 *1526:CLK 0
12 *602:CLK 0.000319514
13 *1577:CLK 0.000188861
14 *1575:CLK 0.000112401
15 *1529:CLK 1.11303e-05
16 *1578:CLK 0
17 *1525:CLK 0.000537564
18 *1647:X 0.000336158
19 *433:168 0.00109272
20 *433:160 0.000661973
21 *433:152 0.000550048
22 *433:93 0.00049311
23 *433:83 0.000565302
24 *433:79 0.000308938
25 *433:64 0.000363942
26 *433:42 0.000385924
27 *433:29 0.000281349
28 *433:27 0.000265545
29 *433:25 0.000434776
30 *433:23 0.000357712
31 *433:21 0.00018681
32 *433:10 0.000967872
33 *1525:CLK *1366:A 8.00143e-05
34 *1525:CLK *1379:A2 4.41135e-05
35 *1525:CLK *1431:A 0.000118
36 *1525:CLK *1431:B 4.97008e-05
37 *1525:CLK *1496:A 0.000151821
38 *1525:CLK *1660:A 0.000286211
39 *1525:CLK *585:145 0.000113372
40 *1527:CLK *1137:A 0.000385327
41 *1527:CLK *1207:A 0.000127326
42 *1527:CLK *1208:A2 0
43 *1527:CLK *1211:B1 0
44 *1527:CLK *1214:A_N 0.000275399
45 *1527:CLK *1214:B 0.000272978
46 *1527:CLK *1448:A 6.77185e-05
47 *1527:CLK *472:27 0.000311481
48 *1527:CLK *579:67 0.000176993
49 *1527:CLK *580:72 0.000419392
50 *1527:CLK *587:38 6.1357e-05
51 *1527:CLK *587:53 0.000242967
52 *1527:CLK *589:46 0
53 *1529:CLK *1429:B 4.99619e-05
54 *1529:CLK *593:8 1.83756e-05
55 *1574:CLK *534:33 8.73389e-06
56 *1575:CLK *1424:A 0.000219734
57 *1575:CLK *1424:B 2.49909e-05
58 *1575:CLK *1605:A 0
59 *1580:CLK *1427:A 6.62665e-05
60 *1669:clk *1141:A 0.000144714
61 *1669:clk *1142:A 1.56428e-05
62 *1669:clk *1157:B 0.000331894
63 *1669:clk *1159:A1 3.63701e-06
64 *1669:clk *1159:A2 0
65 *1669:clk *1519:A 0.000462359
66 *1669:clk *1519:B 8.65905e-05
67 *1669:clk *1520:B2 5.70968e-05
68 *1669:clk *1669:rst_n 0
69 *1669:clk *1671:A 0.00015953
70 *1669:clk *570:34 0.000580261
71 *1669:clk *572:24 0
72 *1669:clk *587:22 5.56285e-05
73 *1669:clk *587:38 0.000108761
74 *433:10 *1427:A 0
75 *433:10 *1427:B 0.000209233
76 *433:21 *1376:A2 7.89856e-05
77 *433:23 *1376:A2 0.000211098
78 *433:25 *1376:A2 0.0001947
79 *433:25 *1429:B 6.92933e-05
80 *433:27 *1429:B 0.000283588
81 *433:29 *1429:B 2.79956e-05
82 *433:42 *1429:B 8.77131e-05
83 *433:42 *1529:D 0.000505921
84 *433:42 *593:8 0.000218991
85 *433:79 *1424:B 0
86 *433:93 *1259:B 3.25831e-05
87 *433:93 *438:14 0
88 *433:93 *534:33 7.3987e-05
89 *433:93 *534:41 0.00021769
90 *433:152 *1213:A_N 6.97118e-05
91 *433:152 *1605:A 5.30673e-05
92 *433:152 *462:16 0.000113663
93 *433:152 *462:27 0.000326753
94 *433:152 *585:145 0.000267251
95 *433:160 *1250:A 0
96 *433:160 *1412:A 0.000352862
97 *433:160 *1445:A1 0.000286949
98 *433:160 *1487:A0 0
99 *433:160 *462:16 0.000237803
100 *433:160 *585:108 2.75145e-05
101 *433:160 *585:145 2.16917e-05
102 *433:168 *1412:A 0.000118622
103 *433:168 *1448:A 5.37074e-05
104 *433:168 *570:78 0.000180373
105 *433:168 *579:84 4.82919e-05
106 *433:168 *586:109 1.85674e-05
107 *433:168 *586:147 0.000197175
108 *433:168 *587:76 9.94996e-05
109 uo_out[2] *433:10 0
110 uo_out[4] *433:10 0
111 *1162:B *1669:clk 0
112 *1163:B *1669:clk 6.94735e-06
113 *1167:A *1527:CLK 8.49205e-05
114 *1167:B *1527:CLK 8.05167e-05
115 *1202:A *433:42 8.35106e-05
116 *1202:A *433:79 0
117 *1204:A *602:CLK 0
118 *1208:B1 *1527:CLK 9.23483e-05
119 *1215:C1 *1669:clk 1.02639e-05
120 *1297:B *1669:clk 0.000155056
121 *1377:B *433:83 0.00037674
122 *1378:B1 *1573:CLK 2.49909e-05
123 *1378:B1 *433:79 5.23362e-05
124 *1378:B1 *433:83 0.00037674
125 *1404:S *1527:CLK 0.00023468
126 *1409:A *433:160 8.65905e-05
127 *1436:A1 *1577:CLK 4.77719e-05
128 *1436:A1 *1580:CLK 0.000152073
129 *1436:A2 *1574:CLK 0.000108098
130 *1436:A2 *433:93 0.000307339
131 *1437:A *1525:CLK 0
132 *1445:A2 *433:160 4.66108e-05
133 *1446:B2 *433:160 0.000198939
134 *1518:A1 *1669:clk 4.82919e-05
135 *1520:B1 *1669:clk 4.62224e-05
136 *1520:C1 *1669:clk 4.82863e-05
137 *1524:B *1669:clk 2.32597e-05
138 *1526:GATE *602:CLK 0.000179557
139 *1546:D *1669:clk 9.91623e-05
140 *1547:CLK *1669:clk 0.000237055
141 *1548:CLK *1669:clk 2.60541e-05
142 *1574:D *1574:CLK 2.76356e-05
143 *1575:D *602:CLK 2.06578e-05
144 *1575:D *433:93 0.000145464
145 *1576:D *1525:CLK 0.00083346
146 *1576:D *433:21 9.03376e-05
147 *1577:D *1577:CLK 0
148 *1578:D *433:27 0.000125139
149 *1578:D *433:79 3.60648e-05
150 *1579:D *433:25 8.77684e-05
151 *1582:D *1527:CLK 0
152 *1582:D *433:168 5.20335e-05
153 *1589:D *1525:CLK 1.22884e-05
154 *1644:A *1669:clk 0.00027669
155 *122:10 *1527:CLK 0.000461941
156 *122:25 *1669:clk 6.85667e-05
157 *175:8 *1527:CLK 1.43253e-05
158 *175:25 *1527:CLK 0.000119242
159 *176:12 *1527:CLK 0.000204566
160 *297:45 *433:93 0
161 *330:12 *1527:CLK 0.000111459
*RES
1 *1647:X *433:10 8.445 
2 *433:10 *1525:CLK 16.13 
3 *433:10 *433:21 4.175 
4 *433:21 *433:23 2.175 
5 *433:23 *433:25 3.9 
6 *433:25 *433:27 5.625 
7 *433:27 *433:29 0.45 
8 *433:29 *1578:CLK 1.6 
9 *433:29 *433:42 8.175 
10 *433:42 *1529:CLK 2.05 
11 *433:42 *1575:CLK 8.195 
12 *433:27 *433:64 2 
13 *433:64 *1577:CLK 6.45 
14 *433:64 *433:79 2.94 
15 *433:79 *433:83 6.44 
16 *433:83 *433:93 10.82 
17 *433:93 *602:CLK 4.4 
18 *433:93 *1526:CLK 2 
19 *433:83 *1574:CLK 3.355 
20 *433:79 *1573:CLK 4.05 
21 *433:25 *1579:CLK 1.6 
22 *433:23 *1580:CLK 7.49 
23 *433:21 *1576:CLK 1.6 
24 *602:CLK *433:152 6.9675 
25 *433:152 *433:160 13.465 
26 *433:160 *433:168 8.52 
27 *433:168 *1527:CLK 28.2625 
28 *433:168 *1582:CLK 1.6 
29 *433:160 *1581:CLK 1.6 
30 *433:152 *1528:CLK 1.6 
31 *1527:CLK *1669:clk 35.6561 
*END

*D_NET *434 0.0192039
*CONN
*I *1534:CLK I *D sky130_fd_sc_hd__dfxtp_2
*I *1535:CLK I *D sky130_fd_sc_hd__dfxtp_2
*I *1536:CLK I *D sky130_fd_sc_hd__dfxtp_2
*I *1538:CLK I *D sky130_fd_sc_hd__dfxtp_2
*I *1539:CLK I *D sky130_fd_sc_hd__dfxtp_2
*I *1540:CLK I *D sky130_fd_sc_hd__dfxtp_2
*I *1541:CLK I *D sky130_fd_sc_hd__dfxtp_2
*I *1542:CLK I *D sky130_fd_sc_hd__dfxtp_2
*I *1545:CLK I *D sky130_fd_sc_hd__dfxtp_2
*I *1544:CLK I *D sky130_fd_sc_hd__dfxtp_2
*I *1543:CLK I *D sky130_fd_sc_hd__dfxtp_2
*I *1537:CLK I *D sky130_fd_sc_hd__dfxtp_2
*I *1531:CLK I *D sky130_fd_sc_hd__dfxtp_2
*I *1530:CLK I *D sky130_fd_sc_hd__dfxtp_2
*I *1533:CLK I *D sky130_fd_sc_hd__dfxtp_2
*I *1532:CLK I *D sky130_fd_sc_hd__dfxtp_2
*I *602:GCLK O *D sky130_fd_sc_hd__dlclkp_2
*CAP
1 *1534:CLK 0
2 *1535:CLK 3.55506e-05
3 *1536:CLK 0
4 *1538:CLK 0
5 *1539:CLK 2.09808e-05
6 *1540:CLK 0.000209276
7 *1541:CLK 0
8 *1542:CLK 0.000215952
9 *1545:CLK 0
10 *1544:CLK 0.000412223
11 *1543:CLK 0.000480748
12 *1537:CLK 0.000133966
13 *1531:CLK 0
14 *1530:CLK 0.000445235
15 *1533:CLK 0
16 *1532:CLK 2.51931e-05
17 *602:GCLK 0.000320629
18 *434:142 0.000443722
19 *434:138 0.000672277
20 *434:136 0.000329447
21 *434:118 0.000477497
22 *434:103 0.000805235
23 *434:101 0.000456657
24 *434:95 0.000329254
25 *434:93 0.000346217
26 *434:80 0.00104759
27 *434:74 0.00104723
28 *434:46 0.000660908
29 *434:44 0.000628473
30 *434:36 0.000540775
31 *434:21 0.000482284
32 *434:10 0.000460909
33 *1530:CLK *1254:A 0.000122333
34 *1530:CLK *1370:B1 0
35 *1530:CLK *1422:A 4.00541e-06
36 *1530:CLK *1422:B 0.000307049
37 *1530:CLK *439:28 0.000122331
38 *1530:CLK *439:48 0
39 *1530:CLK *440:8 1.03423e-05
40 *1532:CLK *1370:B1 4.66108e-05
41 *1537:CLK *1268:A2 0
42 *1537:CLK *449:27 0
43 *1540:CLK *1280:C 0
44 *1540:CLK *446:42 0
45 *1542:CLK *1621:A 0
46 *1542:CLK *444:31 0.000157177
47 *1542:CLK *444:55 0.000201407
48 *1543:CLK *1295:C 3.09233e-05
49 *1543:CLK *1603:A 0
50 *1543:CLK *441:37 0.000116853
51 *1543:CLK *442:6 0.00019766
52 *1543:CLK *442:70 1.70935e-05
53 *1543:CLK *585:108 5.8678e-05
54 *1544:CLK *435:8 4.41506e-05
55 *1544:CLK *442:62 5.07453e-05
56 *434:10 *1382:B 0.000287535
57 *434:10 *585:145 0.000346507
58 *434:21 *1258:B1 0.000111485
59 *434:21 *1382:B 0.000177568
60 *434:21 *1424:A 3.89587e-05
61 *434:36 *1424:A 5.73362e-05
62 *434:44 *1253:B 0.000124895
63 *434:46 *1254:A 2.42236e-05
64 *434:46 *436:54 5.4857e-05
65 *434:46 *436:67 9.38259e-05
66 *434:46 *540:14 5.85508e-05
67 *434:74 *1203:A 0
68 *434:74 *1264:B1 1.34503e-05
69 *434:74 *1429:B 3.25997e-05
70 *434:74 *436:67 2.72764e-05
71 *434:74 *450:8 4.2197e-06
72 *434:80 *1264:A2 1.56428e-05
73 *434:80 *1264:B1 2.11084e-05
74 *434:80 *1268:A2 0
75 *434:80 *449:62 1.0124e-05
76 *434:80 *449:73 5.35969e-06
77 *434:80 *450:12 1.36454e-05
78 *434:95 *447:10 7.35813e-05
79 *434:95 *540:54 8.70891e-05
80 *434:101 *1603:A 0
81 *434:101 *540:54 0.000160314
82 *434:103 *1295:B 4.11744e-05
83 *434:103 *1295:C 0.000280867
84 *434:103 *1603:A 0
85 *434:103 *442:70 0.000113566
86 *434:118 *442:62 2.86792e-05
87 *434:136 *446:12 2.62225e-05
88 *434:136 *447:68 0.000232403
89 *434:138 *446:12 7.83178e-05
90 *434:142 *1621:A 1.89867e-06
91 uio_out[6] *434:95 0.000181782
92 uio_out[6] *434:101 0.000115759
93 *1203:B *434:74 2.23203e-05
94 *1204:A *434:10 9.54399e-05
95 *1254:B *1530:CLK 8.09021e-06
96 *1254:C *1530:CLK 7.18805e-05
97 *1254:C *434:46 0.000249887
98 *1266:C *434:74 0.000201114
99 *1269:A2 *434:80 0.000385333
100 *1275:C *1537:CLK 0
101 *1275:C *434:80 0
102 *1278:C *434:101 8.45475e-05
103 *1278:C *434:103 0.000181376
104 *1296:B *1544:CLK 2.78574e-05
105 *1296:B *434:118 6.98693e-05
106 *1411:B *1537:CLK 4.18603e-06
107 *1417:B1 *1543:CLK 6.95814e-05
108 *1418:B *1543:CLK 7.58604e-05
109 *1423:B1 *1530:CLK 2.77183e-05
110 *1436:B2 *434:74 0
111 *1530:D *1530:CLK 1.43717e-05
112 *1534:D *434:36 3.93926e-05
113 *1534:D *434:44 0.000118081
114 *1534:D *434:74 0
115 *1535:D *434:74 1.61232e-05
116 *1536:D *434:80 8.14761e-05
117 *1536:D *434:93 0.00020525
118 *1537:D *1537:CLK 4.18603e-06
119 *1538:D *434:95 0.000315035
120 *1539:D *434:101 0
121 *1539:D *434:136 0.000162202
122 *1540:D *1540:CLK 0.000159964
123 *1541:D *1542:CLK 4.82919e-05
124 *1541:D *434:142 0.000105494
125 *1542:D *1542:CLK 8.7152e-06
126 *1543:D *1543:CLK 7.36892e-05
127 *1545:D *1544:CLK 5.01066e-05
128 *173:10 *434:10 0.000195151
129 *173:10 *434:21 0.000374764
130 *173:10 *434:36 0.000200176
*RES
1 *602:GCLK *434:10 10.23 
2 *434:10 *1532:CLK 4.05 
3 *434:10 *434:21 4.44 
4 *434:21 *1533:CLK 3.6 
5 *434:21 *434:36 7.55 
6 *434:36 *434:44 5.2025 
7 *434:44 *434:46 5.8425 
8 *434:46 *1530:CLK 11.925 
9 *434:46 *1531:CLK 3.6 
10 *434:44 *434:74 6.5225 
11 *434:74 *434:80 11.945 
12 *434:80 *1537:CLK 5.49 
13 *434:80 *434:93 4.865 
14 *434:93 *434:95 5.97 
15 *434:95 *434:101 5.12 
16 *434:101 *434:103 6.48 
17 *434:103 *1543:CLK 13.32 
18 *434:103 *434:118 3.485 
19 *434:118 *1544:CLK 7.93 
20 *434:118 *1545:CLK 1.6 
21 *434:101 *434:136 4.52 
22 *434:136 *434:138 3.555 
23 *434:138 *434:142 3.57 
24 *434:142 *1542:CLK 10.235 
25 *434:142 *1541:CLK 1.6 
26 *434:138 *1540:CLK 9.275 
27 *434:136 *1539:CLK 1.96 
28 *434:95 *1538:CLK 1.6 
29 *434:93 *1536:CLK 1.6 
30 *434:74 *1535:CLK 2.215 
31 *434:36 *1534:CLK 1.6 
*END

*D_NET *435 0.00898064
*CONN
*I *1413:A0 I *D sky130_fd_sc_hd__mux4_2
*I *1295:A I *D sky130_fd_sc_hd__or3_2
*I *1294:A1 I *D sky130_fd_sc_hd__o21ai_2
*I *1289:B I *D sky130_fd_sc_hd__or3_2
*I *1288:A1 I *D sky130_fd_sc_hd__o21ai_2
*I *1291:B1 I *D sky130_fd_sc_hd__o21ai_2
*I *1292:A I *D sky130_fd_sc_hd__or3_2
*I *1421:A1 I *D sky130_fd_sc_hd__o21ba_2
*I *1545:Q O *D sky130_fd_sc_hd__dfxtp_2
*CAP
1 *1413:A0 0
2 *1295:A 0.000120707
3 *1294:A1 5.13973e-05
4 *1289:B 0.000138005
5 *1288:A1 0.000105662
6 *1291:B1 0
7 *1292:A 2.66019e-05
8 *1421:A1 0.000289653
9 *1545:Q 7.03287e-05
10 *435:69 0.000673277
11 *435:61 0.000732397
12 *435:53 0.000581216
13 *435:51 0.000824192
14 *435:12 0.000452558
15 *435:10 0.000199855
16 *435:8 0.000748953
17 *1288:A1 *1288:A2 0.000228297
18 *1288:A1 *1621:A 0
19 *1289:B *1288:B1 8.31082e-05
20 *1295:A *1277:A 1.23437e-05
21 *1295:A *1295:B 0.000135002
22 *1295:A *1295:C 2.47823e-05
23 *1421:A1 *1487:A0 0.000151555
24 *1421:A1 *1487:S 8.23457e-05
25 *435:51 *1271:A 6.86277e-05
26 *435:51 *1271:B 1.23331e-05
27 *435:51 *1410:S 6.86726e-05
28 *435:51 *538:88 6.52933e-05
29 *435:51 *538:120 7.40107e-05
30 *435:53 *1295:B 8.23457e-05
31 *435:53 *442:70 8.41307e-05
32 *435:53 *538:88 1.75536e-05
33 *435:61 *1295:B 0
34 *435:61 *1295:C 0
35 *435:61 *1413:A3 7.7036e-05
36 *435:61 *1413:S1 2.20014e-05
37 *435:61 *586:54 7.09865e-05
38 *435:69 *1288:B1 3.76596e-05
39 *435:69 *1414:A0 3.83194e-05
40 *435:69 *1414:S 0.000121815
41 *435:69 *1621:A 0
42 *435:69 *443:10 0
43 *435:69 *443:12 0.000117116
44 *435:69 *443:18 0
45 *435:69 *444:20 2.96553e-05
46 *435:69 *538:66 0
47 *1278:C *1295:A 8.40269e-05
48 *1290:B *1288:A1 0.000312969
49 *1290:B *435:69 8.53113e-06
50 *1293:B *435:10 9.30717e-05
51 *1293:B *435:51 0.000175207
52 *1293:C *435:10 7.90356e-06
53 *1293:C *435:12 7.28401e-05
54 *1293:C *435:51 1.97849e-05
55 *1407:B *435:51 0.000155265
56 *1411:A *1421:A1 5.65539e-05
57 *1411:A *435:12 1.86955e-05
58 *1415:A *435:69 0
59 *1419:A1 *1292:A 0.000120655
60 *1419:B1 *1421:A1 1.29636e-05
61 *1420:A2 *1421:A1 8.96017e-05
62 *1420:A3 *1292:A 0.000122331
63 *1420:A3 *1421:A1 0
64 *1420:C1 *1421:A1 0.000645855
65 *1421:A2 *1421:A1 5.30673e-05
66 *1423:A2 *1421:A1 2.7441e-05
67 *1544:CLK *435:8 4.41506e-05
68 *1544:D *435:51 0.000139933
69 *172:22 *1421:A1 0
70 *338:10 *435:10 0
71 *338:10 *435:12 0
72 *338:10 *435:51 0
*RES
1 *1545:Q *435:8 4.395 
2 *435:8 *435:10 1.38 
3 *435:10 *435:12 2.4 
4 *435:12 *1421:A1 12.195 
5 *435:12 *1292:A 4.74 
6 *435:10 *1291:B1 3.6 
7 *435:8 *435:51 11.39 
8 *435:51 *435:53 2.52 
9 *435:53 *435:61 7.795 
10 *435:61 *435:69 9.425 
11 *435:69 *1288:A1 7.275 
12 *435:69 *1289:B 5.43 
13 *435:61 *1294:A1 2.395 
14 *435:53 *1295:A 8.39 
15 *435:51 *1413:A0 1.6 
*END

*D_NET *436 0.00518059
*CONN
*I *1262:A I *D sky130_fd_sc_hd__or3_2
*I *1408:A0 I *D sky130_fd_sc_hd__mux2_1
*I *1265:A I *D sky130_fd_sc_hd__or3_2
*I *1264:B1 I *D sky130_fd_sc_hd__o21ai_2
*I *1261:A1 I *D sky130_fd_sc_hd__o21ai_2
*I *1258:A1 I *D sky130_fd_sc_hd__o21ai_2
*I *1259:A I *D sky130_fd_sc_hd__or3_2
*I *1534:Q O *D sky130_fd_sc_hd__dfxtp_2
*CAP
1 *1262:A 0
2 *1408:A0 0
3 *1265:A 0.000127388
4 *1264:B1 2.15273e-05
5 *1261:A1 1.10725e-05
6 *1258:A1 0.000417797
7 *1259:A 0.000133058
8 *1534:Q 0.000485749
9 *436:67 0.000300104
10 *436:54 0.00023326
11 *436:50 0.000248764
12 *436:42 0.000242872
13 *1258:A1 *1260:A 4.66108e-05
14 *1258:A1 *1262:C 0
15 *1258:A1 *1424:A 0.000228231
16 *1259:A *1259:B 0.000113372
17 *1264:B1 *450:12 2.16833e-05
18 *1265:A *1429:B 0
19 *1265:A *450:25 0
20 *436:42 *1261:B1 0.000308719
21 *436:42 *1262:B 3.23663e-05
22 *436:42 *1262:C 0.000229541
23 *436:50 *1253:B 0.000112123
24 *436:50 *548:24 0.000198051
25 *436:54 *1406:A1 4.59105e-05
26 *436:54 *450:54 9.50342e-06
27 *436:54 *540:14 1.88602e-05
28 *436:67 *450:54 0.000299245
29 *1254:C *436:50 0.000113797
30 *1260:B *1259:A 7.06865e-05
31 *1260:C *1259:A 5.53698e-05
32 *1263:C *1261:A1 3.25676e-05
33 *1266:B *436:67 0
34 *1266:C *1265:A 7.18817e-05
35 *1266:C *436:67 0.000133541
36 *1533:D *1258:A1 8.73389e-06
37 *1533:D *1259:A 4.66108e-05
38 *1534:D *1261:A1 4.82919e-05
39 *1535:D *1264:B1 4.82919e-05
40 *1535:D *436:67 1.07797e-05
41 *1575:D *1259:A 0.000284749
42 *173:10 *1258:A1 0.00015896
43 *434:46 *436:54 5.4857e-05
44 *434:46 *436:67 9.38259e-05
45 *434:74 *1264:B1 1.34503e-05
46 *434:74 *436:67 2.72764e-05
47 *434:80 *1264:B1 2.11084e-05
*RES
1 *1534:Q *1259:A 11.07 
2 *1534:Q *1258:A1 12.72 
3 *1258:A1 *436:42 4.465 
4 *436:42 *436:50 7.21 
5 *436:50 *436:54 3.38 
6 *436:54 *1261:A1 4.05 
7 *436:54 *436:67 4.635 
8 *436:67 *1264:B1 4.395 
9 *436:67 *1265:A 6 
10 *436:50 *1408:A0 1.6 
11 *436:42 *1262:A 1.6 
*END

*D_NET *437 0.00543812
*CONN
*I *1408:A1 I *D sky130_fd_sc_hd__mux2_1
*I *1259:B I *D sky130_fd_sc_hd__or3_2
*I *1262:B I *D sky130_fd_sc_hd__or3_2
*I *1258:A2 I *D sky130_fd_sc_hd__o21ai_2
*I *1261:B1 I *D sky130_fd_sc_hd__o21ai_2
*I *1255:A1 I *D sky130_fd_sc_hd__o21ai_2
*I *1256:A I *D sky130_fd_sc_hd__or3_2
*I *1533:Q O *D sky130_fd_sc_hd__dfxtp_2
*CAP
1 *1408:A1 0.000133698
2 *1259:B 7.76398e-05
3 *1262:B 0.000299534
4 *1258:A2 0
5 *1261:B1 0.000164446
6 *1255:A1 0.000133698
7 *1256:A 0.000128401
8 *1533:Q 0.000257058
9 *437:45 0.000331088
10 *437:34 0.000217455
11 *437:14 0.000274724
12 *437:8 0.000536664
13 *437:6 0.000703583
14 *1256:A *1255:B1 3.59902e-05
15 *1256:A *439:16 4.66108e-05
16 *1259:B *1425:B 0
17 *1259:B *438:14 0
18 *1261:B1 *1262:C 1.91597e-05
19 *1262:B *1262:C 7.79847e-05
20 *1408:A1 *1408:S 4.82863e-05
21 *1408:A1 *548:24 0.000347023
22 *437:6 *502:30 3.29648e-05
23 *437:14 *1255:B1 4.55864e-06
24 *437:14 *1424:A 0
25 *437:14 *1605:A 0
26 *1257:B *1256:A 0.000291389
27 *1259:A *1259:B 0.000113372
28 *1260:B *437:6 9.60582e-07
29 *1260:B *437:8 3.11463e-05
30 *1260:C *1259:B 7.23533e-05
31 *1263:C *1261:B1 0.000195476
32 *1533:D *437:8 9.26175e-06
33 *1534:D *1261:B1 1.4683e-05
34 *1534:D *1262:B 4.66108e-05
35 *1575:D *1259:B 3.6964e-05
36 *1625:A *1256:A 0.000217605
37 *1625:A *437:14 1.98158e-05
38 *213:8 *1256:A 0.000144251
39 *433:93 *1259:B 3.25831e-05
40 *436:42 *1261:B1 0.000308719
41 *436:42 *1262:B 3.23663e-05
*RES
1 *1533:Q *437:6 4.465 
2 *437:6 *437:8 3.9 
3 *437:8 *437:14 4.175 
4 *437:14 *1256:A 8.235 
5 *437:14 *1255:A1 3.6 
6 *437:8 *437:34 0.36 
7 *437:34 *1261:B1 6.19 
8 *437:34 *437:45 0.81 
9 *437:45 *1258:A2 1.6 
10 *437:45 *1262:B 5.68 
11 *437:6 *1259:B 7.745 
12 *1255:A1 *1408:A1 6.41 
*END

*D_NET *438 0.0076144
*CONN
*I *1406:A2 I *D sky130_fd_sc_hd__mux4_2
*I *1259:C I *D sky130_fd_sc_hd__or3_2
*I *1255:A2 I *D sky130_fd_sc_hd__o21ai_2
*I *1256:B I *D sky130_fd_sc_hd__or3_2
*I *1252:A1 I *D sky130_fd_sc_hd__o21ai_2
*I *1253:B I *D sky130_fd_sc_hd__or3_2
*I *1258:B1 I *D sky130_fd_sc_hd__o21ai_2
*I *1532:Q O *D sky130_fd_sc_hd__dfxtp_2
*CAP
1 *1406:A2 0.000193514
2 *1259:C 2.04889e-05
3 *1255:A2 0
4 *1256:B 9.10378e-05
5 *1252:A1 0.000574941
6 *1253:B 0.000433877
7 *1258:B1 4.97211e-05
8 *1532:Q 0.0003363
9 *438:54 0.000539472
10 *438:50 9.558e-05
11 *438:31 0.000666735
12 *438:16 0.000373514
13 *438:14 0.000476298
14 *1252:A1 *1252:B1 9.27326e-05
15 *1252:A1 *1370:B1 0.000158072
16 *1252:A1 *439:28 0.000272973
17 *1252:A1 *540:8 4.92062e-05
18 *1253:B *1429:A 3.24583e-05
19 *1253:B *548:24 0.000211496
20 *1256:B *1605:A 0.000119474
21 *1258:B1 *1424:A 0.000112767
22 *1406:A2 *1406:A3 9.18176e-05
23 *1406:A2 *439:36 0.000123225
24 *438:14 *1370:B1 1.77665e-05
25 *438:14 *1425:B 2.8531e-05
26 *438:14 *534:41 0.000176419
27 *438:16 *534:41 2.05056e-05
28 *438:16 *548:10 0.000198046
29 *438:31 *548:10 3.03144e-05
30 *438:31 *548:24 8.34281e-06
31 *438:50 *548:24 3.09774e-05
32 *438:54 *1605:A 0.000110929
33 *1251:C *1406:A2 0.000107814
34 *1254:B *1252:A1 4.01687e-05
35 *1254:C *1253:B 0.000190455
36 *1259:B *438:14 0
37 *1260:C *438:14 4.89295e-05
38 *1266:C *1253:B 3.03775e-05
39 *1377:B *438:14 0
40 *1407:B *1406:A2 4.82863e-05
41 *1412:B *1252:A1 5.83121e-06
42 *1412:B *1406:A2 4.21973e-05
43 *1436:B2 *1253:B 2.69493e-05
44 *1530:D *1406:A2 4.82863e-05
45 *1531:D *1252:A1 5.20335e-05
46 *1534:D *1253:B 0.000114492
47 *1625:A *1256:B 1.05827e-05
48 *1625:A *438:31 0.00016551
49 *1625:A *438:54 0.000207454
50 *172:22 *1406:A2 8.82557e-05
51 *213:8 *1256:B 0.000214153
52 *339:20 *1406:A2 8.65961e-05
53 *433:93 *438:14 0
54 *434:21 *1258:B1 0.000111485
55 *434:44 *1253:B 0.000124895
56 *436:50 *1253:B 0.000112123
*RES
1 *1532:Q *438:14 10.805 
2 *438:14 *438:16 2.175 
3 *438:16 *1258:B1 6.98 
4 *438:16 *438:31 2.88 
5 *438:31 *1253:B 13.82 
6 *438:31 *438:50 0.615 
7 *438:50 *438:54 4.4 
8 *438:54 *1252:A1 11.52 
9 *438:54 *1256:B 6.255 
10 *438:50 *1255:A2 1.6 
11 *438:14 *1259:C 1.96 
12 *1252:A1 *1406:A2 12.57 
*END

*D_NET *439 0.00809435
*CONN
*I *1255:B1 I *D sky130_fd_sc_hd__o21ai_2
*I *1256:C I *D sky130_fd_sc_hd__or3_2
*I *1253:C I *D sky130_fd_sc_hd__or3_2
*I *1252:A2 I *D sky130_fd_sc_hd__o21ai_2
*I *1406:A3 I *D sky130_fd_sc_hd__mux4_2
*I *1250:C I *D sky130_fd_sc_hd__or3_2
*I *1249:A2 I *D sky130_fd_sc_hd__o21ai_2
*I *1531:Q O *D sky130_fd_sc_hd__dfxtp_2
*CAP
1 *1255:B1 5.65712e-05
2 *1256:C 0
3 *1253:C 0.000324524
4 *1252:A2 0
5 *1406:A3 0.000133532
6 *1250:C 0.000110282
7 *1249:A2 0.000120329
8 *1531:Q 3.36482e-05
9 *439:48 0.000462266
10 *439:36 0.000401928
11 *439:32 5.2343e-05
12 *439:28 0.000831926
13 *439:16 0.000681851
14 *439:8 0.000280271
15 *1249:A2 *1249:A1 0.000129913
16 *1249:A2 *1249:B1 1.90686e-05
17 *1249:A2 *1631:A 4.66108e-05
18 *1249:A2 *441:23 5.24934e-05
19 *1249:A2 *441:27 8.56857e-05
20 *1250:C *1250:B 7.21296e-06
21 *1250:C *462:16 4.66108e-05
22 *1250:C *594:10 0.000154954
23 *1253:C *1266:A 8.65961e-05
24 *1253:C *1406:A0 6.23206e-05
25 *1253:C *1409:C_N 0.000162047
26 *1253:C *586:147 0.000189039
27 *1255:B1 *1257:A 0.000118527
28 *1255:B1 *1382:B 5.11148e-06
29 *1255:B1 *1424:A 1.54318e-05
30 *1406:A3 *1412:A 3.60922e-05
31 *439:8 *1370:B1 1.56428e-05
32 *439:16 *1257:A 0.000180416
33 *439:28 *1253:A 7.01104e-05
34 *439:28 *1254:A 6.67454e-05
35 *439:28 *440:8 1.61831e-05
36 *439:28 *440:42 0.000135912
37 *439:32 *1409:C_N 5.23362e-05
38 *439:48 *1412:A 7.3664e-05
39 *439:48 *1422:A 0.000267249
40 *439:48 *1422:B 0.00015657
41 *439:48 *1631:A 3.57349e-05
42 *439:48 *441:23 7.10578e-05
43 *1251:C *1406:A3 0
44 *1252:A1 *439:28 0.000272973
45 *1254:B *439:28 0.000234131
46 *1256:A *1255:B1 3.59902e-05
47 *1256:A *439:16 4.66108e-05
48 *1257:B *1255:B1 8.76033e-05
49 *1257:B *439:16 0.000196481
50 *1257:C *439:16 4.66108e-05
51 *1266:C *1253:C 0.000161529
52 *1406:A2 *1406:A3 9.18176e-05
53 *1406:A2 *439:36 0.000123225
54 *1412:B *439:28 2.17931e-05
55 *1412:B *439:36 0.000160641
56 *1419:B1 *1250:C 4.9253e-06
57 *1420:A3 *1250:C 0
58 *1423:B1 *439:48 1.4399e-05
59 *1530:CLK *439:28 0.000122331
60 *1530:CLK *439:48 0
61 *1530:D *1253:C 5.11148e-06
62 *1530:D *1406:A3 8.2852e-05
63 *1530:D *439:32 4.51849e-05
64 *1530:D *439:48 4.92096e-05
65 *172:22 *1253:C 0.000261891
66 *339:20 *1250:C 0.000175673
67 *437:14 *1255:B1 4.55864e-06
*RES
1 *1531:Q *439:8 4.05 
2 *439:8 *439:16 6.335 
3 *439:16 *439:28 16.2 
4 *439:28 *439:32 2.615 
5 *439:32 *439:36 3.485 
6 *439:36 *439:48 8.105 
7 *439:48 *1249:A2 5.05 
8 *439:48 *1250:C 8.555 
9 *439:36 *1406:A3 6.9 
10 *439:32 *1252:A2 1.6 
11 *439:28 *1253:C 12.435 
12 *439:16 *1256:C 1.6 
13 *439:8 *1255:B1 5.49 
*END

*D_NET *440 0.00661795
*CONN
*I *1292:B I *D sky130_fd_sc_hd__or3_2
*I *1416:A0 I *D sky130_fd_sc_hd__mux2_1
*I *1291:A1 I *D sky130_fd_sc_hd__o21ai_2
*I *1253:A I *D sky130_fd_sc_hd__or3_2
*I *1252:B1 I *D sky130_fd_sc_hd__o21ai_2
*I *1249:A1 I *D sky130_fd_sc_hd__o21ai_2
*I *1250:A I *D sky130_fd_sc_hd__or3_2
*I *1530:Q O *D sky130_fd_sc_hd__dfxtp_2
*CAP
1 *1292:B 3.24789e-05
2 *1416:A0 0.000159166
3 *1291:A1 0.00025656
4 *1253:A 0.000309885
5 *1252:B1 3.51442e-05
6 *1249:A1 0.00033683
7 *1250:A 1.64124e-05
8 *1530:Q 8.6308e-05
9 *440:42 0.000407396
10 *440:16 0.000704037
11 *440:8 0.000564384
12 *1249:A1 *1250:B 9.02924e-05
13 *1249:A1 *1422:A 0.00010978
14 *1249:A1 *1487:A0 9.41701e-05
15 *1249:A1 *1631:A 8.23457e-05
16 *1250:A *1487:A0 4.36369e-05
17 *1253:A *1254:A 5.12017e-06
18 *1253:A *1406:A0 0
19 *1253:A *1406:A1 0.000154216
20 *1253:A *1409:C_N 0
21 *1253:A *450:54 0.00010844
22 *1253:A *540:14 7.12792e-05
23 *1253:A *548:24 6.85339e-05
24 *1291:A1 *441:27 4.65698e-05
25 *1292:B *1292:C 0.000117407
26 *1416:A0 *1416:S 4.82863e-05
27 *1416:A0 *441:31 0.000345353
28 *1416:A0 *441:37 1.91597e-05
29 *440:16 *1370:B1 0
30 *440:16 *585:108 0.000717654
31 *440:42 *1370:B1 0
32 *1249:A2 *1249:A1 0.000129913
33 *1251:C *1249:A1 9.02924e-05
34 *1252:A1 *1252:B1 9.27326e-05
35 *1254:B *1252:B1 0.00016063
36 *1254:B *440:8 4.99619e-05
37 *1254:B *440:42 2.68721e-05
38 *1266:B *1253:A 0
39 *1409:A *1253:A 0.000149062
40 *1409:A *440:16 0.00010074
41 *1409:A *440:42 0.000195648
42 *1530:CLK *440:8 1.03423e-05
43 *1624:A *440:16 0
44 *334:8 *1292:B 0.000117407
45 *347:31 *440:16 0.0002413
46 *433:160 *1250:A 0
47 *439:28 *1253:A 7.01104e-05
48 *439:28 *440:8 1.61831e-05
49 *439:28 *440:42 0.000135912
*RES
1 *1530:Q *440:8 4.74 
2 *440:8 *440:16 3.45583 
3 *440:16 *1250:A 4.0875 
4 *440:16 *1249:A1 9.1275 
5 *440:8 *440:42 2.4 
6 *440:42 *1252:B1 5.085 
7 *440:42 *1253:A 10.785 
8 *1249:A1 *1291:A1 4.34 
9 *1291:A1 *1416:A0 6.755 
10 *1291:A1 *1292:B 8.58 
*END

*D_NET *441 0.00523838
*CONN
*I *1249:B1 I *D sky130_fd_sc_hd__o21ai_2
*I *1291:A2 I *D sky130_fd_sc_hd__o21ai_2
*I *1292:C I *D sky130_fd_sc_hd__or3_2
*I *1416:A1 I *D sky130_fd_sc_hd__mux2_1
*I *1295:C I *D sky130_fd_sc_hd__or3_2
*I *1294:A2 I *D sky130_fd_sc_hd__o21ai_2
*I *1250:B I *D sky130_fd_sc_hd__or3_2
*I *1544:Q O *D sky130_fd_sc_hd__dfxtp_2
*CAP
1 *1249:B1 3.10692e-05
2 *1291:A2 0
3 *1292:C 9.77114e-05
4 *1416:A1 0
5 *1295:C 0.00022315
6 *1294:A2 3.39387e-05
7 *1250:B 8.31406e-05
8 *1544:Q 0.000112884
9 *441:66 0.000118522
10 *441:37 0.000559445
11 *441:31 0.000552518
12 *441:27 0.000627323
13 *441:23 0.000567056
14 *441:10 0.00037566
15 *1250:B *1487:A0 6.95739e-05
16 *1250:B *594:10 2.23407e-05
17 *1295:C *1295:B 8.84407e-05
18 *441:37 *585:108 9.60582e-07
19 *441:37 *586:54 0
20 *1249:A1 *1250:B 9.02924e-05
21 *1249:A2 *1249:B1 1.90686e-05
22 *1249:A2 *441:23 5.24934e-05
23 *1249:A2 *441:27 8.56857e-05
24 *1250:C *1250:B 7.21296e-06
25 *1251:C *1250:B 4.5783e-05
26 *1251:C *441:10 3.67779e-05
27 *1291:A1 *441:27 4.65698e-05
28 *1292:B *1292:C 0.000117407
29 *1295:A *1295:C 2.47823e-05
30 *1411:A *1292:C 0.000204447
31 *1416:A0 *441:31 0.000345353
32 *1416:A0 *441:37 1.91597e-05
33 *1417:B1 *441:37 4.87234e-06
34 *1420:A1 *1292:C 1.70935e-05
35 *1543:CLK *1295:C 3.09233e-05
36 *1543:CLK *441:37 0.000116853
37 *334:8 *1292:C 3.32139e-05
38 *339:20 *1250:B 0
39 *339:20 *441:10 2.47313e-05
40 *434:103 *1295:C 0.000280867
41 *435:61 *1295:C 0
42 *439:48 *441:23 7.10578e-05
*RES
1 *1544:Q *441:10 5.265 
2 *441:10 *1250:B 5.745 
3 *441:10 *441:23 4.175 
4 *441:23 *441:27 4.26 
5 *441:27 *441:31 4.26 
6 *441:31 *441:37 5.9 
7 *441:37 *1294:A2 4.05 
8 *441:37 *1295:C 8.34 
9 *441:31 *1416:A1 1.6 
10 *441:27 *441:66 0.36 
11 *441:66 *1292:C 8.45 
12 *441:66 *1291:A2 1.6 
13 *441:23 *1249:B1 2.215 
*END

*D_NET *442 0.00622641
*CONN
*I *1294:B1 I *D sky130_fd_sc_hd__o21ai_2
*I *1413:A1 I *D sky130_fd_sc_hd__mux4_2
*I *1295:B I *D sky130_fd_sc_hd__or3_2
*I *1288:A2 I *D sky130_fd_sc_hd__o21ai_2
*I *1286:C I *D sky130_fd_sc_hd__or3_2
*I *1285:A2 I *D sky130_fd_sc_hd__o21ai_2
*I *1289:C I *D sky130_fd_sc_hd__or3_2
*I *1543:Q O *D sky130_fd_sc_hd__dfxtp_2
*CAP
1 *1294:B1 0
2 *1413:A1 0
3 *1295:B 0.000155956
4 *1288:A2 0.000116767
5 *1286:C 0.000144729
6 *1285:A2 0
7 *1289:C 0
8 *1543:Q 0
9 *442:70 0.000290542
10 *442:62 0.000555555
11 *442:23 0.000201822
12 *442:12 0.000314247
13 *442:6 0.000914415
14 *442:4 0.000961463
15 *1286:C *1286:A 0.000160635
16 *1286:C *1286:B 4.92062e-05
17 *1286:C *444:20 8.82557e-05
18 *1288:A2 *1621:A 0
19 *442:12 *1621:A 0.000141599
20 *442:12 *476:12 9.76295e-06
21 *442:23 *1621:A 0.000161637
22 *442:62 *1603:A 0.000243555
23 *442:70 *1603:A 7.68304e-05
24 *1278:C *1295:B 2.91921e-05
25 *1287:B *1286:C 4.21973e-05
26 *1287:B *442:12 3.26084e-05
27 *1287:B *442:23 1.32017e-05
28 *1288:A1 *1288:A2 0.000228297
29 *1295:A *1295:B 0.000135002
30 *1295:C *1295:B 8.84407e-05
31 *1315:B1 *442:12 0
32 *1320:A2 *1286:C 0
33 *1417:A2 *442:62 0.000241187
34 *1418:B *442:6 2.49909e-05
35 *1418:B *442:62 0.000126037
36 *1542:D *442:23 6.28765e-05
37 *1543:CLK *442:6 0.00019766
38 *1543:CLK *442:70 1.70935e-05
39 *1544:CLK *442:62 5.07453e-05
40 *434:103 *1295:B 4.11744e-05
41 *434:103 *442:70 0.000113566
42 *434:118 *442:62 2.86792e-05
43 *435:53 *1295:B 8.23457e-05
44 *435:53 *442:70 8.41307e-05
45 *435:61 *1295:B 0
*RES
1 *1543:Q *442:4 1.6 
2 *442:4 *442:6 6.315 
3 *442:6 *442:12 5.81 
4 *442:12 *1289:C 3.6 
5 *442:12 *442:23 3.89 
6 *442:23 *1285:A2 1.6 
7 *442:23 *1286:C 5.185 
8 *442:6 *1288:A2 8.255 
9 *442:4 *442:62 11.185 
10 *442:62 *442:70 7.45 
11 *442:70 *1295:B 8.795 
12 *442:70 *1413:A1 1.6 
13 *442:62 *1294:B1 1.6 
*END

*D_NET *443 0.00453222
*CONN
*I *1286:A I *D sky130_fd_sc_hd__or3_2
*I *1283:A I *D sky130_fd_sc_hd__or3_2
*I *1414:A0 I *D sky130_fd_sc_hd__mux2_1
*I *1285:A1 I *D sky130_fd_sc_hd__o21ai_2
*I *1282:A1 I *D sky130_fd_sc_hd__o21ai_2
*I *1288:B1 I *D sky130_fd_sc_hd__o21ai_2
*I *1289:A I *D sky130_fd_sc_hd__or3_2
*I *1542:Q O *D sky130_fd_sc_hd__dfxtp_2
*CAP
1 *1286:A 6.38742e-05
2 *1283:A 2.74485e-05
3 *1414:A0 3.79128e-05
4 *1285:A1 6.38742e-05
5 *1282:A1 0.00024188
6 *1288:B1 0.000229847
7 *1289:A 0
8 *1542:Q 5.85586e-05
9 *443:18 0.000310051
10 *443:14 0.000294636
11 *443:12 0.000105859
12 *443:10 0.00020233
13 *1282:A1 *1283:C 8.65905e-05
14 *1282:A1 *1621:A 0.000347751
15 *1282:A1 *444:20 4.20983e-05
16 *1282:A1 *445:29 4.66108e-05
17 *1283:A *1283:B 0.000139626
18 *1283:A *1283:C 0.000162311
19 *1288:B1 *1290:A 0.000163204
20 *1288:B1 *538:66 0
21 *1288:B1 *585:85 4.82919e-05
22 *1414:A0 *1414:A1 8.23457e-05
23 *1414:A0 *1414:S 4.66108e-05
24 *1414:A0 *444:12 3.66286e-05
25 *443:10 *444:10 0.000139252
26 *443:10 *444:20 0
27 *443:12 *444:12 0.000313857
28 *443:12 *444:20 3.1835e-05
29 *443:18 *1621:A 0.000161637
30 *443:18 *444:20 1.52184e-05
31 *1286:C *1286:A 0.000160635
32 *1287:B *1286:A 4.66108e-05
33 *1287:B *443:12 4.82919e-05
34 *1289:B *1288:B1 8.31082e-05
35 *1290:B *1288:B1 0.000270961
36 *1290:C *1288:B1 4.21973e-05
37 *1415:A *1288:B1 4.43871e-06
38 *1543:D *1288:B1 0.00016163
39 *133:48 *1288:B1 2.11084e-05
40 *435:69 *1288:B1 3.76596e-05
41 *435:69 *1414:A0 3.83194e-05
42 *435:69 *443:10 0
43 *435:69 *443:12 0.000117116
44 *435:69 *443:18 0
*RES
1 *1542:Q *443:10 7.235 
2 *443:10 *443:12 3.555 
3 *443:12 *443:14 2 
4 *443:14 *443:18 3.89 
5 *443:18 *1289:A 1.6 
6 *443:18 *1288:B1 12.5 
7 *443:14 *1282:A1 8.925 
8 *443:12 *1285:A1 1.6 
9 *443:10 *1414:A0 2.74 
10 *1282:A1 *1283:A 4.685 
11 *1285:A1 *1286:A 4.685 
*END

*D_NET *444 0.00559216
*CONN
*I *1414:A1 I *D sky130_fd_sc_hd__mux2_1
*I *1285:B1 I *D sky130_fd_sc_hd__o21ai_2
*I *1280:A I *D sky130_fd_sc_hd__or3_2
*I *1279:A1 I *D sky130_fd_sc_hd__o21ai_2
*I *1282:A2 I *D sky130_fd_sc_hd__o21ai_2
*I *1283:B I *D sky130_fd_sc_hd__or3_2
*I *1286:B I *D sky130_fd_sc_hd__or3_2
*I *1541:Q O *D sky130_fd_sc_hd__dfxtp_2
*CAP
1 *1414:A1 6.53292e-05
2 *1285:B1 0
3 *1280:A 0.000166238
4 *1279:A1 9.73191e-06
5 *1282:A2 1.50419e-05
6 *1283:B 0.000132203
7 *1286:B 6.36179e-05
8 *1541:Q 0.000203916
9 *444:55 0.000404359
10 *444:33 0.000147245
11 *444:31 0.00035601
12 *444:20 0.000467983
13 *444:12 0.000445426
14 *444:10 0.000437927
15 *1280:A *1280:B 0.000121976
16 *1280:A *1280:C 0
17 *1282:A2 *1283:C 4.66108e-05
18 *1283:B *1283:C 1.46744e-05
19 *1414:A1 *1414:S 2.16917e-05
20 *444:10 *1413:A2 9.54399e-05
21 *444:10 *1413:A3 0
22 *444:10 *1413:S0 0.000154488
23 *444:10 *445:12 6.45236e-05
24 *444:10 *445:14 8.92701e-05
25 *444:10 *446:18 0.000141606
26 *444:10 *538:66 5.16418e-05
27 *444:10 *586:54 1.17666e-05
28 *444:31 *540:77 0
29 *444:55 *1280:B 4.43871e-06
30 *444:55 *540:71 0
31 *444:55 *540:77 0
32 uio_oe[4] *1280:A 4.43871e-06
33 *1281:C *1279:A1 4.82863e-05
34 *1282:A1 *444:20 4.20983e-05
35 *1283:A *1283:B 0.000139626
36 *1284:B *1282:A2 1.91597e-05
37 *1284:B *1283:B 8.65905e-05
38 *1284:B *444:55 5.21046e-05
39 *1284:C *444:55 3.56353e-05
40 *1286:C *1286:B 4.92062e-05
41 *1286:C *444:20 8.82557e-05
42 *1287:B *444:20 1.48096e-05
43 *1315:B1 *444:31 0.000150393
44 *1414:A0 *1414:A1 8.23457e-05
45 *1414:A0 *444:12 3.66286e-05
46 *1540:D *1279:A1 4.82863e-05
47 *1542:CLK *444:31 0.000157177
48 *1542:CLK *444:55 0.000201407
49 *1542:D *444:31 7.27408e-05
50 *435:69 *444:20 2.96553e-05
51 *443:10 *444:10 0.000139252
52 *443:10 *444:20 0
53 *443:12 *444:12 0.000313857
54 *443:12 *444:20 3.1835e-05
55 *443:18 *444:20 1.52184e-05
*RES
1 *1541:Q *444:10 11.57 
2 *444:10 *444:12 3.21 
3 *444:12 *444:20 7.99 
4 *444:20 *1286:B 2.395 
5 *444:20 *444:31 5.42 
6 *444:31 *444:33 2 
7 *444:33 *1283:B 4.51 
8 *444:33 *1282:A2 2.05 
9 *444:31 *444:55 4.185 
10 *444:55 *1279:A1 4.05 
11 *444:55 *1280:A 6.3 
12 *444:12 *1285:B1 1.6 
13 *444:10 *1414:A1 2.74 
*END

*D_NET *445 0.00543236
*CONN
*I *1276:A1 I *D sky130_fd_sc_hd__o21ai_2
*I *1280:B I *D sky130_fd_sc_hd__or3_2
*I *1279:A2 I *D sky130_fd_sc_hd__o21ai_2
*I *1277:B I *D sky130_fd_sc_hd__or3_2
*I *1282:B1 I *D sky130_fd_sc_hd__o21ai_2
*I *1283:C I *D sky130_fd_sc_hd__or3_2
*I *1413:A2 I *D sky130_fd_sc_hd__mux4_2
*I *1540:Q O *D sky130_fd_sc_hd__dfxtp_2
*CAP
1 *1276:A1 0
2 *1280:B 5.14018e-05
3 *1279:A2 7.77117e-06
4 *1277:B 6.3573e-05
5 *1282:B1 0
6 *1283:C 0.000278741
7 *1413:A2 9.50173e-05
8 *1540:Q 0.00039001
9 *445:56 0.000168571
10 *445:54 0.000109398
11 *445:29 0.000593256
12 *445:14 0.000451194
13 *445:12 0.000279712
14 *445:10 0.000564486
15 *1277:B *1413:A3 4.9253e-06
16 *1277:B *446:18 3.45679e-05
17 *1413:A2 *1413:A3 3.47837e-05
18 *1413:A2 *1413:S1 2.16917e-05
19 *1413:A2 *586:50 4.99619e-05
20 *445:12 *1276:B1 0
21 *445:12 *1277:A 0
22 *445:12 *446:18 1.1561e-05
23 *445:12 *446:42 9.86611e-05
24 *445:14 *1277:A 0
25 *445:14 *1413:A3 1.0183e-05
26 *445:29 *446:18 8.40213e-05
27 *445:56 *1276:A2 8.49205e-05
28 *445:56 *446:44 0.000427094
29 *445:56 *540:58 1.60203e-05
30 uio_oe[0] *445:10 0
31 uio_oe[0] *445:56 6.90876e-05
32 uio_oe[2] *445:56 1.61831e-05
33 uio_out[6] *445:56 4.82863e-05
34 *1280:A *1280:B 0.000121976
35 *1281:C *1279:A2 4.99619e-05
36 *1281:C *1280:B 7.63204e-05
37 *1281:C *445:56 7.49327e-05
38 *1282:A1 *1283:C 8.65905e-05
39 *1282:A1 *445:29 4.66108e-05
40 *1282:A2 *1283:C 4.66108e-05
41 *1283:A *1283:C 0.000162311
42 *1283:B *1283:C 1.46744e-05
43 *1540:D *1279:A2 4.82863e-05
44 *1540:D *445:10 0
45 *1540:D *445:56 0.000385333
46 *444:10 *1413:A2 9.54399e-05
47 *444:10 *445:12 6.45236e-05
48 *444:10 *445:14 8.92701e-05
49 *444:55 *1280:B 4.43871e-06
*RES
1 *1540:Q *445:10 8.1 
2 *445:10 *445:12 3.42 
3 *445:12 *445:14 1.125 
4 *445:14 *1413:A2 5.52 
5 *445:14 *445:29 6.59 
6 *445:29 *1283:C 6.205 
7 *445:29 *1282:B1 1.6 
8 *445:12 *1277:B 4.395 
9 *445:10 *445:54 2 
10 *445:54 *445:56 5.625 
11 *445:56 *1279:A2 2.05 
12 *445:56 *1280:B 7.235 
13 *445:54 *1276:A1 1.6 
*END

*D_NET *446 0.0057365
*CONN
*I *1274:C I *D sky130_fd_sc_hd__or3_2
*I *1273:A2 I *D sky130_fd_sc_hd__o21ai_2
*I *1276:A2 I *D sky130_fd_sc_hd__o21ai_2
*I *1279:B1 I *D sky130_fd_sc_hd__o21ai_2
*I *1280:C I *D sky130_fd_sc_hd__or3_2
*I *1413:A3 I *D sky130_fd_sc_hd__mux4_2
*I *1277:C I *D sky130_fd_sc_hd__or3_2
*I *1539:Q O *D sky130_fd_sc_hd__dfxtp_2
*CAP
1 *1274:C 9.6565e-05
2 *1273:A2 0
3 *1276:A2 5.86648e-05
4 *1279:B1 0
5 *1280:C 0.000225172
6 *1413:A3 0.000146505
7 *1277:C 0
8 *1539:Q 0
9 *446:79 0.0002441
10 *446:44 0.000287404
11 *446:42 0.000227865
12 *446:18 0.000302736
13 *446:12 0.000834962
14 *446:4 0.0007193
15 *1274:C *1273:A1 4.82863e-05
16 *1274:C *1274:A 8.23457e-05
17 *1274:C *448:14 4.66108e-05
18 *1276:A2 *540:58 0.000187553
19 *1413:A3 *1277:A 8.30853e-06
20 *1413:A3 *1413:S1 8.46717e-05
21 *446:12 *447:68 1.10808e-05
22 *446:44 *540:58 0.000428764
23 *446:79 *1274:B 0
24 *446:79 *447:68 8.36099e-05
25 uio_oe[1] *1280:C 0.00011577
26 uio_oe[4] *1280:C 0
27 uio_out[6] *1276:A2 8.71577e-05
28 *1277:B *1413:A3 4.9253e-06
29 *1277:B *446:18 3.45679e-05
30 *1280:A *1280:C 0
31 *1281:C *1280:C 0.000159964
32 *1413:A2 *1413:A3 3.47837e-05
33 *1539:D *446:12 0.000135204
34 *1540:CLK *1280:C 0
35 *1540:CLK *446:42 0
36 *1540:D *1280:C 0
37 *434:136 *446:12 2.62225e-05
38 *434:138 *446:12 7.83178e-05
39 *435:61 *1413:A3 7.7036e-05
40 *444:10 *1413:A3 0
41 *444:10 *446:18 0.000141606
42 *445:12 *446:18 1.1561e-05
43 *445:12 *446:42 9.86611e-05
44 *445:14 *1413:A3 1.0183e-05
45 *445:29 *446:18 8.40213e-05
46 *445:56 *1276:A2 8.49205e-05
47 *445:56 *446:44 0.000427094
*RES
1 *1539:Q *446:4 1.6 
2 *446:4 *446:12 9.47 
3 *446:12 *446:18 5.375 
4 *446:18 *1277:C 1.6 
5 *446:18 *1413:A3 8.48 
6 *446:12 *446:42 4.145 
7 *446:42 *446:44 3.9 
8 *446:44 *1280:C 10.085 
9 *446:44 *1279:B1 1.6 
10 *446:42 *1276:A2 4.24 
11 *446:4 *446:79 2.805 
12 *446:79 *1273:A2 1.6 
13 *446:79 *1274:C 3.43 
*END

*D_NET *447 0.00433961
*CONN
*I *1276:B1 I *D sky130_fd_sc_hd__o21ai_2
*I *1277:A I *D sky130_fd_sc_hd__or3_2
*I *1274:A I *D sky130_fd_sc_hd__or3_2
*I *1273:A1 I *D sky130_fd_sc_hd__o21ai_2
*I *1270:A1 I *D sky130_fd_sc_hd__o21ai_2
*I *1271:A I *D sky130_fd_sc_hd__or3_2
*I *1410:A0 I *D sky130_fd_sc_hd__mux2_1
*I *1538:Q O *D sky130_fd_sc_hd__dfxtp_2
*CAP
1 *1276:B1 0.000101347
2 *1277:A 0.000196308
3 *1274:A 5.9174e-05
4 *1273:A1 0.000513544
5 *1270:A1 0
6 *1271:A 9.10977e-05
7 *1410:A0 0
8 *1538:Q 0.000154557
9 *447:68 0.000788921
10 *447:41 8.14528e-05
11 *447:21 0.000197167
12 *447:14 0.000193525
13 *447:10 0.000242013
14 *1271:A *1271:B 2.24342e-05
15 *1271:A *1271:C 0.000134715
16 *1271:A *1406:S0 8.65905e-05
17 *1271:A *1410:S 5.65822e-05
18 *1274:A *448:14 2.16917e-05
19 *1276:B1 *540:58 8.52883e-05
20 *447:10 *448:20 5.16418e-05
21 *447:14 *448:20 0.000162318
22 *447:14 *540:46 0
23 *447:21 *1410:S 4.82863e-05
24 *447:21 *448:33 8.43946e-05
25 *447:21 *540:33 4.82863e-05
26 uio_out[6] *1276:B1 4.8854e-05
27 *1274:C *1273:A1 4.82863e-05
28 *1274:C *1274:A 8.23457e-05
29 *1275:B *447:10 5.12859e-05
30 *1275:B *447:14 1.22676e-05
31 *1275:C *447:10 0
32 *1295:A *1277:A 1.23437e-05
33 *1407:B *1271:A 5.30732e-05
34 *1411:A *447:14 1.15688e-05
35 *1411:B *447:21 1.34594e-05
36 *1413:A3 *1277:A 8.30853e-06
37 *1539:D *447:68 0.000107176
38 *434:95 *447:10 7.35813e-05
39 *434:136 *447:68 0.000232403
40 *435:51 *1271:A 6.86277e-05
41 *445:12 *1276:B1 0
42 *445:12 *1277:A 0
43 *445:14 *1277:A 0
44 *446:12 *447:68 1.10808e-05
45 *446:79 *447:68 8.36099e-05
*RES
1 *1538:Q *447:10 6.375 
2 *447:10 *447:14 4.145 
3 *447:14 *1410:A0 1.6 
4 *447:14 *447:21 2.175 
5 *447:21 *1271:A 8.54 
6 *447:21 *1270:A1 1.6 
7 *447:10 *447:41 2 
8 *447:41 *1273:A1 2.05 
9 *447:41 *1274:A 2.74 
10 *1273:A1 *447:68 10.29 
11 *447:68 *1277:A 6.51 
12 *447:68 *1276:B1 5.52 
*END

*D_NET *448 0.00468038
*CONN
*I *1268:A1 I *D sky130_fd_sc_hd__o21ai_2
*I *1267:A I *D sky130_fd_sc_hd__or3_2
*I *1274:B I *D sky130_fd_sc_hd__or3_2
*I *1273:B1 I *D sky130_fd_sc_hd__o21ai_2
*I *1270:A2 I *D sky130_fd_sc_hd__o21ai_2
*I *1271:B I *D sky130_fd_sc_hd__or3_2
*I *1410:A1 I *D sky130_fd_sc_hd__mux2_1
*I *1537:Q O *D sky130_fd_sc_hd__dfxtp_2
*CAP
1 *1268:A1 4.61868e-05
2 *1267:A 0.000269966
3 *1274:B 6.79724e-05
4 *1273:B1 0
5 *1270:A2 0
6 *1271:B 9.36544e-05
7 *1410:A1 0
8 *1537:Q 9.95887e-05
9 *448:33 0.000208927
10 *448:20 0.000195299
11 *448:14 0.000151619
12 *448:12 0.000742788
13 *448:6 0.00092659
14 *1267:A *1265:B 0
15 *1267:A *1267:B 0
16 *1267:A *1268:A2 0
17 *1267:A *1269:B1_N 6.28765e-05
18 *1267:A *450:25 0
19 *1268:A1 *1267:B 2.30292e-05
20 *1268:A1 *1268:B1 8.57024e-05
21 *1268:A1 *450:29 2.30292e-05
22 *1271:B *1271:C 0.000133049
23 *448:6 *1266:A 4.66108e-05
24 *448:33 *1271:C 4.66108e-05
25 *448:33 *1410:S 4.82863e-05
26 *448:33 *449:27 0
27 uio_out[1] *1268:A1 4.99619e-05
28 uio_out[2] *1267:A 1.58876e-05
29 uio_out[2] *1268:A1 0.000124895
30 *1269:A1 *1267:A 0
31 *1271:A *1271:B 2.24342e-05
32 *1274:A *448:14 2.16917e-05
33 *1274:C *448:14 4.66108e-05
34 *1411:A *448:12 0.00012657
35 *1411:A *448:20 0.000180675
36 *1411:B *448:33 0.000250694
37 *1537:D *448:12 7.70553e-06
38 *1544:D *1271:B 4.43871e-06
39 *338:10 *1271:B 0.000215966
40 *338:10 *448:12 3.03775e-05
41 *435:51 *1271:B 1.23331e-05
42 *446:79 *1274:B 0
43 *447:10 *448:20 5.16418e-05
44 *447:14 *448:20 0.000162318
45 *447:21 *448:33 8.43946e-05
*RES
1 *1537:Q *448:6 2.74 
2 *448:6 *448:12 7.815 
3 *448:12 *448:14 1.14 
4 *448:14 *448:20 6.4 
5 *448:20 *1410:A1 1.6 
6 *448:20 *448:33 3.6 
7 *448:33 *1271:B 8.255 
8 *448:33 *1270:A2 1.6 
9 *448:14 *1273:B1 1.6 
10 *448:12 *1274:B 2.725 
11 *448:6 *1267:A 9.275 
12 *1267:A *1268:A1 5.03 
*END

*D_NET *449 0.00567179
*CONN
*I *1265:B I *D sky130_fd_sc_hd__or3_2
*I *1406:A0 I *D sky130_fd_sc_hd__mux4_2
*I *1264:A1 I *D sky130_fd_sc_hd__o21ai_2
*I *1267:B I *D sky130_fd_sc_hd__or3_2
*I *1270:B1 I *D sky130_fd_sc_hd__o21ai_2
*I *1271:C I *D sky130_fd_sc_hd__or3_2
*I *1268:A2 I *D sky130_fd_sc_hd__o21ai_2
*I *1536:Q O *D sky130_fd_sc_hd__dfxtp_2
*CAP
1 *1265:B 0.000259924
2 *1406:A0 0.000236775
3 *1264:A1 2.5525e-05
4 *1267:B 0.000189423
5 *1270:B1 0
6 *1271:C 0.000153395
7 *1268:A2 0.00024606
8 *1536:Q 0
9 *449:73 0.000532075
10 *449:62 0.00038612
11 *449:27 0.000466416
12 *449:19 0.000502445
13 *449:4 0.000571279
14 *1264:A1 *450:12 2.34602e-05
15 *1265:B *1269:B1_N 0
16 *1265:B *1604:A 9.43301e-05
17 *1265:B *450:25 4.39001e-05
18 *1265:B *450:29 1.03423e-05
19 *1406:A0 *548:24 4.79012e-05
20 *1406:A0 *586:147 9.31326e-05
21 *449:27 *1269:B1_N 0
22 *449:27 *1272:A 0.000278117
23 *449:27 *548:39 0
24 *449:27 *586:147 0.000163175
25 *449:62 *1269:B1_N 3.59496e-05
26 uio_out[1] *1268:A2 4.18603e-06
27 uio_out[2] *1267:B 4.82919e-05
28 uio_out[2] *1268:A2 0
29 uio_out[3] *1268:A2 8.53113e-06
30 *1253:A *1406:A0 0
31 *1253:C *1406:A0 6.23206e-05
32 *1266:B *1265:B 0.000100162
33 *1266:B *1406:A0 0.000182055
34 *1267:A *1265:B 0
35 *1267:A *1267:B 0
36 *1267:A *1268:A2 0
37 *1268:A1 *1267:B 2.30292e-05
38 *1269:A1 *1265:B 0
39 *1269:A2 *1267:B 9.30787e-05
40 *1269:A2 *1268:A2 3.59997e-05
41 *1269:A2 *449:62 6.4909e-05
42 *1271:A *1271:C 0.000134715
43 *1271:B *1271:C 0.000133049
44 *1272:B *1271:C 1.33293e-05
45 *1272:B *449:27 1.47256e-05
46 *1272:C *1271:C 4.82919e-05
47 *1272:C *449:27 1.46744e-05
48 *1411:B *1271:C 2.04748e-05
49 *1536:D *1268:A2 0.000123225
50 *1536:D *449:62 0.0001249
51 *1537:CLK *1268:A2 0
52 *1537:CLK *449:27 0
53 *1537:D *449:27 0
54 *172:22 *1406:A0 0
55 *434:80 *1268:A2 0
56 *434:80 *449:62 1.0124e-05
57 *434:80 *449:73 5.35969e-06
58 *448:33 *1271:C 4.66108e-05
59 *448:33 *449:27 0
*RES
1 *1536:Q *449:4 1.6 
2 *449:4 *1268:A2 9.65 
3 *449:4 *449:19 2 
4 *449:19 *449:27 8.9 
5 *449:27 *1271:C 9.065 
6 *449:27 *1270:B1 1.6 
7 *449:19 *1267:B 7.095 
8 *449:4 *449:62 4.245 
9 *449:62 *1264:A1 2.215 
10 *449:62 *449:73 2.45 
11 *449:73 *1406:A0 8.805 
12 *449:73 *1265:B 7.575 
*END

*D_NET *450 0.00664176
*CONN
*I *1262:C I *D sky130_fd_sc_hd__or3_2
*I *1261:A2 I *D sky130_fd_sc_hd__o21ai_2
*I *1406:A1 I *D sky130_fd_sc_hd__mux4_2
*I *1265:C I *D sky130_fd_sc_hd__or3_2
*I *1267:C I *D sky130_fd_sc_hd__or3_2
*I *1268:B1 I *D sky130_fd_sc_hd__o21ai_2
*I *1264:A2 I *D sky130_fd_sc_hd__o21ai_2
*I *1535:Q O *D sky130_fd_sc_hd__dfxtp_2
*CAP
1 *1262:C 0.000264
2 *1261:A2 0
3 *1406:A1 0.000203565
4 *1265:C 5.12909e-05
5 *1267:C 0
6 *1268:B1 3.55038e-05
7 *1264:A2 2.52595e-05
8 *1535:Q 5.04407e-05
9 *450:54 0.000345855
10 *450:29 0.000341975
11 *450:25 0.000506058
12 *450:12 0.000348397
13 *450:8 0.000671752
14 *450:6 0.000669061
15 *1262:C *1424:A 0
16 *1262:C *1605:A 0.000281633
17 *1265:C *1604:A 0.000100149
18 *1406:A1 *1254:A 0
19 *1406:A1 *1406:S1 8.40213e-05
20 *1406:A1 *1408:S 0.000271394
21 *1406:A1 *540:14 5.8023e-05
22 *1406:A1 *548:24 0.000122325
23 *450:6 *1429:B 8.65961e-05
24 *450:8 *1429:B 0.000229536
25 *450:29 *1604:A 4.82863e-05
26 uio_out[1] *450:29 0
27 uo_out[3] *1265:C 8.77516e-05
28 *1253:A *1406:A1 0.000154216
29 *1253:A *450:54 0.00010844
30 *1258:A1 *1262:C 0
31 *1261:B1 *1262:C 1.91597e-05
32 *1262:B *1262:C 7.79847e-05
33 *1264:A1 *450:12 2.34602e-05
34 *1264:B1 *450:12 2.16833e-05
35 *1265:A *450:25 0
36 *1265:B *450:25 4.39001e-05
37 *1265:B *450:29 1.03423e-05
38 *1266:B *450:25 5.4003e-05
39 *1266:B *450:54 0
40 *1267:A *450:25 0
41 *1268:A1 *1268:B1 8.57024e-05
42 *1268:A1 *450:29 2.30292e-05
43 *1269:A1 *450:29 2.77183e-05
44 *1407:B *1406:A1 0.000190525
45 *1534:D *1262:C 0.000115751
46 *1535:D *450:8 7.03046e-05
47 *1535:D *450:12 4.66108e-05
48 *1535:D *450:54 6.83488e-05
49 *434:74 *450:8 4.2197e-06
50 *434:80 *1264:A2 1.56428e-05
51 *434:80 *450:12 1.36454e-05
52 *436:42 *1262:C 0.000229541
53 *436:54 *1406:A1 4.59105e-05
54 *436:54 *450:54 9.50342e-06
55 *436:67 *450:54 0.000299245
*RES
1 *1535:Q *450:6 2.395 
2 *450:6 *450:8 4.245 
3 *450:8 *450:12 2.445 
4 *450:12 *1264:A2 2.05 
5 *450:12 *450:25 6.655 
6 *450:25 *450:29 4.605 
7 *450:29 *1268:B1 2.395 
8 *450:29 *1267:C 1.6 
9 *450:25 *1265:C 3.1 
10 *450:8 *450:54 5.675 
11 *450:54 *1406:A1 9.96 
12 *450:54 *1261:A2 3.6 
13 *450:6 *1262:C 11.9 
*END

*D_NET *451 0.0027573
*CONN
*I *1344:A I *D sky130_fd_sc_hd__or2_2
*I *1633:A I *D sky130_fd_sc_hd__dlygate4sd3_1
*I *1154:B I *D sky130_fd_sc_hd__nand3b_2
*I *1155:A1 I *D sky130_fd_sc_hd__a21bo_2
*I *1564:Q O *D sky130_fd_sc_hd__dfxtp_2
*CAP
1 *1344:A 6.17475e-05
2 *1633:A 1.86412e-05
3 *1154:B 0
4 *1155:A1 0.00015154
5 *1564:Q 4.78064e-05
6 *451:40 0.000200054
7 *451:12 0.000285257
8 *451:8 0.00030119
9 *1155:A1 *1154:A_N 5.83121e-06
10 *1155:A1 *1154:C 1.90487e-05
11 *1155:A1 *1155:A2 0.000154204
12 *1155:A1 *1155:B1_N 8.7152e-06
13 *1344:A *1344:B 0.000321276
14 *1633:A *1344:B 0.000124895
15 *451:12 *1456:C_N 0
16 *451:40 *453:36 0
17 *1174:B *451:12 3.75728e-05
18 *1176:A1 *451:12 0.000115253
19 *1444:A *1344:A 7.14699e-05
20 *1444:A *1633:A 0.000124895
21 *1460:A1 *451:12 0.000246098
22 *1460:A1 *451:40 0.000222246
23 *1564:D *451:40 0
24 *138:12 *1155:A1 1.72133e-05
25 *149:10 *1155:A1 0.000111158
26 *149:10 *451:12 1.09931e-05
27 *179:42 *1155:A1 0.000100197
*RES
1 *1564:Q *451:8 4.05 
2 *451:8 *451:12 5.42 
3 *451:12 *1155:A1 9.455 
4 *451:12 *1154:B 1.6 
5 *451:8 *451:40 4.655 
6 *451:40 *1633:A 2.74 
7 *451:40 *1344:A 3.775 
*END

*D_NET *452 0.00808023
*CONN
*I *1617:A I *D sky130_fd_sc_hd__clkdlybuf4s25_1
*I *1188:A1 I *D sky130_fd_sc_hd__a21boi_2
*I *1178:C I *D sky130_fd_sc_hd__and3b_2
*I *1181:A1 I *D sky130_fd_sc_hd__a21boi_2
*I *1182:C I *D sky130_fd_sc_hd__and3b_2
*I *1572:Q O *D sky130_fd_sc_hd__dfxtp_2
*CAP
1 *1617:A 0.000105186
2 *1188:A1 0
3 *1178:C 0.000225584
4 *1181:A1 0
5 *1182:C 0
6 *1572:Q 4.16702e-05
7 *452:51 0.000337427
8 *452:38 0.000218075
9 *452:22 0.00100051
10 *452:8 0.00104113
11 *1178:C *599:DIODE 0.000317809
12 *1178:C *1181:A2 4.66108e-05
13 *1617:A *1350:C 1.52945e-05
14 *1617:A *532:8 9.21178e-05
15 *452:8 *532:8 8.19945e-05
16 *452:8 *532:16 9.50342e-06
17 *452:22 *1188:A2 0.000217008
18 *452:22 *1349:A 6.87829e-05
19 *452:22 *1525:GATE 1.02164e-05
20 *452:22 *1619:A 0.00030358
21 *452:22 *1668:addr[3] 0
22 *452:22 *534:14 8.40213e-05
23 *452:38 *1188:A2 5.09202e-05
24 *452:38 *574:77 0.000192335
25 *452:38 *574:92 0.000125262
26 *452:51 *1182:B 0.000134092
27 *1184:A1 *1178:C 4.82863e-05
28 *1185:B *1178:C 0.000119756
29 *1187:A2 *452:51 4.82919e-05
30 *1187:A3 *452:51 4.82919e-05
31 *1213:B *452:22 0.000260691
32 *1213:D *452:22 6.98204e-05
33 *1348:B *452:22 0.000178321
34 *1351:B *452:22 0
35 *1363:A2 *452:22 0
36 *1369:B1 *452:22 0.000342784
37 *1374:A1 *1617:A 4.6266e-05
38 *1374:A1 *452:8 3.20568e-05
39 *1436:B1 *452:22 7.9642e-06
40 *1569:D *452:22 0
41 *1666:A *452:38 6.55927e-05
42 *98:28 *1617:A 0.00023468
43 *152:12 *1178:C 8.88799e-05
44 *154:41 *452:38 4.39611e-05
45 *154:41 *452:51 0.000288651
46 *157:14 *1178:C 0.000182534
47 *160:6 *452:38 0.000264906
48 *160:6 *452:51 0.000106558
49 *160:14 *452:38 9.27255e-06
50 *179:42 *1178:C 0
51 *179:42 *452:51 0.0001305
52 *287:8 *452:22 0
53 *287:21 *452:22 0
54 *288:10 *452:22 0
55 *289:12 *452:22 6.28765e-05
56 *291:10 *452:22 0.000322771
57 *291:16 *452:22 0.000122706
58 *425:42 *1617:A 0.00023468
*RES
1 *1572:Q *452:8 4.725 
2 *452:8 *452:22 25.815 
3 *452:22 *452:38 5.2425 
4 *452:38 *1182:C 1.6 
5 *452:38 *452:51 8.3275 
6 *452:51 *1181:A1 1.6 
7 *452:51 *1178:C 8.09875 
8 *452:22 *1188:A1 1.6 
9 *452:8 *1617:A 7.41 
*END

*D_NET *453 0.00382239
*CONN
*I *1344:B I *D sky130_fd_sc_hd__or2_2
*I *1638:A I *D sky130_fd_sc_hd__dlygate4sd3_1
*I *1172:A2 I *D sky130_fd_sc_hd__a21boi_2
*I *1173:B I *D sky130_fd_sc_hd__nand3b_2
*I *1565:Q O *D sky130_fd_sc_hd__dfxtp_2
*CAP
1 *1344:B 0.000228606
2 *1638:A 2.86676e-05
3 *1172:A2 3.87086e-05
4 *1173:B 0.000198789
5 *1565:Q 6.53401e-05
6 *453:36 0.000471082
7 *453:10 0.000405075
8 *453:8 0.000446727
9 *1172:A2 *598:DIODE 4.88478e-05
10 *1172:A2 *532:122 9.43195e-05
11 *1173:B *596:DIODE 6.3895e-05
12 *1173:B *1155:A2 0
13 *1173:B *1173:C 0
14 *1344:B *1354:A 1.14169e-05
15 *1344:B *1608:A 0
16 *1344:B *525:12 1.08758e-05
17 *1344:B *546:6 0.000413375
18 *1638:A *1354:A 5.8322e-05
19 *453:10 *532:100 0
20 *453:36 *532:100 0
21 *1174:B *453:10 0
22 *1344:A *1344:B 0.000321276
23 *1355:A2 *453:36 0
24 *1357:A2 *1638:A 4.89295e-05
25 *1444:A *1344:B 9.90606e-05
26 *1444:A *1638:A 0.00016031
27 *1564:D *453:36 4.1934e-05
28 *1633:A *1344:B 0.000124895
29 *1668:addr[8] *1173:B 0.000122797
30 *1668:addr[10] *1173:B 0.000123955
31 *148:12 *453:10 3.57851e-05
32 *149:10 *453:10 0
33 *151:10 *453:8 2.50059e-05
34 *283:14 *1344:B 8.57321e-05
35 *371:10 *453:36 4.86642e-05
36 *451:40 *453:36 0
*RES
1 *1565:Q *453:8 4.395 
2 *453:8 *453:10 2.655 
3 *453:10 *1173:B 7.14 
4 *453:10 *1172:A2 4.755 
5 *453:8 *453:36 5.42 
6 *453:36 *1638:A 3.085 
7 *453:36 *1344:B 8.995 
*END

*D_NET *454 0.00842364
*CONN
*I *1432:A I *D sky130_fd_sc_hd__nand2_2
*I *1640:A I *D sky130_fd_sc_hd__dlygate4sd3_1
*I *1433:A I *D sky130_fd_sc_hd__or2_2
*I *1345:A I *D sky130_fd_sc_hd__or2_2
*I *1177:A2 I *D sky130_fd_sc_hd__a21boi_2
*I *1178:B I *D sky130_fd_sc_hd__and3b_2
*I *1566:Q O *D sky130_fd_sc_hd__dfxtp_2
*CAP
1 *1432:A 0.00124978
2 *1640:A 4.9966e-05
3 *1433:A 0.000111032
4 *1345:A 4.33129e-05
5 *1177:A2 1.3091e-05
6 *1178:B 0.000241924
7 *1566:Q 0
8 *454:68 0.00141212
9 *454:14 0.000594152
10 *454:8 0.000483461
11 *454:6 0.000284705
12 *454:4 0.00018503
13 *1177:A2 *532:100 4.82863e-05
14 *1178:B *599:DIODE 4.99619e-05
15 *1345:A *559:31 4.94404e-05
16 *1432:A *1353:B 0.000271694
17 *1432:A *1371:A 0
18 *1432:A *1432:B 4.82863e-05
19 *1432:A *1475:A1 0
20 *1432:A *1654:A 0
21 *1432:A *483:14 6.96579e-05
22 *1433:A *1353:B 0.000235714
23 *1433:A *559:41 5.51926e-05
24 *1640:A *1353:B 8.23457e-05
25 *454:14 *559:31 3.77199e-05
26 *454:14 *582:81 0
27 *1179:A *1177:A2 1.83756e-05
28 *1179:A *454:14 0
29 *1179:B *1433:A 9.50342e-06
30 *1180:B *1178:B 2.46089e-05
31 *1345:B *1345:A 9.30787e-05
32 *1345:B *1433:A 5.55344e-05
33 *1355:A1 *1433:A 8.42239e-05
34 *1357:A1 *454:14 0.000252282
35 *1357:A2 *1433:A 0.00012182
36 *1435:B1 *1432:A 0.000115144
37 *1435:B2 *454:68 0.000137578
38 *1467:A2 *1432:A 0.00100732
39 *1470:A1 *1432:A 1.01661e-05
40 *1470:A2 *1432:A 0.000101789
41 *1476:A3 *1432:A 8.10701e-05
42 *1480:A2 *1432:A 0.00015303
43 *1480:A2 *1640:A 4.41506e-05
44 *1566:D *454:14 0.000137777
45 *1583:D *1432:A 0.0001667
46 *152:12 *1178:B 0
47 *154:10 *1178:B 1.07684e-05
48 *154:10 *454:14 5.27452e-05
49 *283:18 *454:6 1.74678e-05
50 *283:18 *454:8 2.47313e-05
51 *283:18 *454:68 1.06688e-05
52 *284:21 *454:14 8.53113e-06
53 *307:73 *1432:A 5.63183e-05
54 *378:65 *1432:A 0
55 *425:96 *454:14 1.13785e-05
*RES
1 *1566:Q *454:4 1.6 
2 *454:4 *454:6 0.795 
3 *454:6 *454:8 1.14 
4 *454:8 *454:14 8.78 
5 *454:14 *1178:B 6.57 
6 *454:14 *1177:A2 4.05 
7 *454:8 *1345:A 6.725 
8 *454:6 *1433:A 9.65 
9 *454:4 *454:68 6.085 
10 *454:68 *1640:A 2.755 
11 *454:68 *1432:A 21.7597 
*END

*D_NET *455 0.00598511
*CONN
*I *1346:A I *D sky130_fd_sc_hd__or2_2
*I *1434:A I *D sky130_fd_sc_hd__xor2_2
*I *1359:A1 I *D sky130_fd_sc_hd__a21o_2
*I *1181:A2 I *D sky130_fd_sc_hd__a21boi_2
*I *1182:B I *D sky130_fd_sc_hd__and3b_2
*I *1567:Q O *D sky130_fd_sc_hd__dfxtp_2
*CAP
1 *1346:A 0.000211862
2 *1434:A 0.000628197
3 *1359:A1 3.22719e-05
4 *1181:A2 2.4371e-05
5 *1182:B 0.000307891
6 *1567:Q 0
7 *455:18 0.000618539
8 *455:14 0.000407765
9 *455:8 0.00083258
10 *455:4 0.00032703
11 *1181:A2 *599:DIODE 2.55503e-05
12 *1346:A *537:10 0.000197264
13 *1434:A *1430:B 0
14 *1434:A *1493:A 0
15 *1434:A *1659:A 0
16 *455:18 *456:12 0
17 *1178:C *1181:A2 4.66108e-05
18 *1213:D *1434:A 4.09029e-05
19 *1346:B *1346:A 8.57024e-05
20 *1347:B *455:18 0
21 *1359:A2 *455:18 2.78732e-05
22 *1359:B1 *1359:A1 3.74161e-05
23 *1359:B1 *455:14 4.66108e-05
24 *1360:B *455:18 1.53032e-05
25 *1436:B1 *1182:B 0.000218257
26 *1436:B1 *1434:A 0.000258353
27 *1436:B1 *455:14 7.06865e-05
28 *1436:B1 *455:18 0.000560647
29 *1437:A *1434:A 7.88312e-05
30 *1567:D *1434:A 2.04411e-05
31 *1567:D *455:14 7.4027e-05
32 *1575:D *1434:A 0
33 *98:28 *1346:A 8.76499e-05
34 *98:28 *1434:A 0
35 *154:25 *455:18 0
36 *157:14 *1181:A2 1.91597e-05
37 *160:6 *1182:B 0.000156263
38 *179:42 *1181:A2 4.82919e-05
39 *179:42 *1182:B 4.13501e-05
40 *179:42 *455:18 1.52184e-05
41 *285:10 *1346:A 2.96426e-05
42 *307:22 *1346:A 8.8266e-05
43 *307:22 *1434:A 8.73147e-06
44 *307:22 *455:8 8.57321e-05
45 *424:12 *1434:A 6.10014e-05
46 *424:49 *1434:A 0
47 *424:51 *1434:A 0
48 *425:83 *455:14 1.47256e-05
49 *452:51 *1182:B 0.000134092
*RES
1 *1567:Q *455:4 1.6 
2 *455:4 *455:8 3.485 
3 *455:8 *455:14 3.665 
4 *455:14 *455:18 8.735 
5 *455:18 *1182:B 9.135 
6 *455:18 *1181:A2 4.395 
7 *455:14 *1359:A1 2.05 
8 *455:8 *1434:A 14.415 
9 *455:4 *1346:A 6.55 
*END

*D_NET *456 0.0062527
*CONN
*I *1430:A I *D sky130_fd_sc_hd__xor2_2
*I *1347:A I *D sky130_fd_sc_hd__or2_2
*I *1189:B I *D sky130_fd_sc_hd__and3b_2
*I *1188:A2 I *D sky130_fd_sc_hd__a21boi_2
*I *1645:A I *D sky130_fd_sc_hd__dlygate4sd3_1
*I *1568:Q O *D sky130_fd_sc_hd__dfxtp_2
*CAP
1 *1430:A 0.000305351
2 *1347:A 0
3 *1189:B 0
4 *1188:A2 0.000155052
5 *1645:A 0
6 *1568:Q 0.000127159
7 *456:53 0.000394715
8 *456:29 0.000616084
9 *456:23 0.00065362
10 *456:12 0.000230383
11 *1188:A2 *1668:addr[3] 0
12 *1188:A2 *457:29 0
13 *1188:A2 *574:77 1.34594e-05
14 *1430:A *1363:B1 0.000103122
15 *1430:A *1493:A 0.00057741
16 *1430:A *1660:A 6.06988e-05
17 *1430:A *585:145 0.000160635
18 *456:12 *537:24 4.35348e-05
19 *456:12 *582:81 0
20 *456:23 *537:24 0.000421062
21 *456:29 *1363:B1 0
22 *456:29 *1668:addr[3] 0.000192125
23 *456:29 *574:92 4.8854e-05
24 *456:53 *1363:B1 1.01661e-05
25 *1190:B *1188:A2 6.0021e-05
26 *1213:B *456:29 0
27 *1213:D *1430:A 4.49939e-05
28 *1213:D *456:29 0.000338212
29 *1213:D *456:53 0.000153597
30 *1243:B *456:29 1.06624e-05
31 *1347:B *456:12 2.03578e-05
32 *1347:B *456:23 0.000381082
33 *1347:B *456:53 1.34361e-05
34 *1568:CLK *456:29 1.26548e-05
35 *1576:D *1430:A 0.000160635
36 *1589:D *1430:A 0.000220318
37 *154:41 *456:29 4.43682e-05
38 *160:14 *1188:A2 5.30673e-05
39 *285:16 *456:12 5.05437e-05
40 *285:16 *456:23 9.80943e-06
41 *286:16 *456:29 0.000183043
42 *286:16 *456:53 8.12265e-05
43 *287:8 *1188:A2 0
44 *425:83 *456:53 3.33094e-05
45 *452:22 *1188:A2 0.000217008
46 *452:38 *1188:A2 5.09202e-05
47 *455:18 *456:12 0
*RES
1 *1568:Q *456:12 8.03 
2 *456:12 *1645:A 1.6 
3 *456:12 *456:23 6.26 
4 *456:23 *456:29 10.175 
5 *456:29 *1188:A2 9.305 
6 *456:29 *1189:B 1.6 
7 *456:23 *456:53 2.7 
8 *456:53 *1347:A 3.6 
9 *456:53 *1430:A 13.095 
*END

*D_NET *457 0.00988968
*CONN
*I *1431:A I *D sky130_fd_sc_hd__xor2_2
*I *1193:A2 I *D sky130_fd_sc_hd__a21o_2
*I *1348:A I *D sky130_fd_sc_hd__or2_2
*I *1235:A2 I *D sky130_fd_sc_hd__a21boi_2
*I *1192:B I *D sky130_fd_sc_hd__and3_2
*I *1381:A2 I *D sky130_fd_sc_hd__o21ai_2
*I *1388:C I *D sky130_fd_sc_hd__and3_2
*I *1362:A I *D sky130_fd_sc_hd__nand2_2
*I *1569:Q O *D sky130_fd_sc_hd__dfxtp_2
*CAP
1 *1431:A 0.000597881
2 *1193:A2 0.000254545
3 *1348:A 0
4 *1235:A2 0
5 *1192:B 0.000280396
6 *1381:A2 5.2127e-05
7 *1388:C 0.000218038
8 *1362:A 7.25606e-05
9 *1569:Q 4.69022e-05
10 *457:58 0.000488349
11 *457:45 0.000514254
12 *457:37 0.000410327
13 *457:29 0.000392184
14 *457:27 0.000735698
15 *457:10 0.000480977
16 *457:8 0.000694293
17 *1192:B *1192:A 1.62605e-06
18 *1192:B *1192:C 0.000108257
19 *1192:B *531:12 6.55406e-05
20 *1192:B *531:14 2.89319e-05
21 *1192:B *531:20 2.18287e-05
22 *1192:B *535:18 0
23 *1193:A2 *1193:A1 1.76403e-05
24 *1193:A2 *532:88 5.05437e-05
25 *1362:A *1363:B1 0
26 *1381:A2 *1381:B1 4.66108e-05
27 *1388:C *531:20 0.000267211
28 *1388:C *535:45 1.07797e-05
29 *1431:A *1363:B1 0
30 *1431:A *1525:GATE 0.000406494
31 *1431:A *1660:A 0
32 *1431:A *537:24 4.76647e-05
33 *457:8 *537:24 4.99619e-05
34 *457:10 *1363:B1 0
35 *457:27 *1189:C 0
36 *457:27 *532:88 3.86607e-05
37 *457:29 *1189:A_N 8.7152e-06
38 *457:29 *1189:C 0
39 *457:37 *1189:A_N 0.000174575
40 *457:37 *574:77 0.000394064
41 *457:37 *575:100 0.000456771
42 *457:45 *575:100 0.000217639
43 *457:45 *576:105 8.65961e-05
44 *457:58 *1192:C 1.68627e-05
45 *457:58 *531:20 0.000329923
46 *457:58 *576:109 0.000142138
47 *1188:A2 *457:29 0
48 *1196:A *457:37 0
49 *1213:B *1362:A 8.3974e-05
50 *1213:B *1431:A 6.19093e-05
51 *1213:B *457:10 5.03222e-05
52 *1213:D *1431:A 1.17114e-05
53 *1236:B1 *1388:C 0
54 *1236:B1 *457:45 4.15942e-05
55 *1351:B *1192:B 0.000163204
56 *1382:A_N *1381:A2 0.000124473
57 *1400:B *1193:A2 6.83659e-05
58 *1400:B *1381:A2 7.43003e-05
59 *1436:B1 *1431:A 0.000162311
60 *1525:CLK *1431:A 0.000118
61 *1569:D *457:27 8.84163e-05
62 *1576:D *1431:A 9.22673e-05
63 *163:12 *457:37 4.76303e-05
64 *166:17 *1193:A2 2.04592e-05
65 *287:8 *457:27 1.71013e-05
66 *287:8 *457:29 8.97486e-05
67 *287:21 *457:27 4.39001e-05
68 *315:8 *1388:C 1.34503e-05
69 *378:42 *1192:B 1.07797e-05
70 *378:42 *1381:A2 1.46744e-05
71 *425:64 *457:8 7.35813e-05
72 *425:64 *457:27 0.000189936
*RES
1 *1569:Q *457:8 4.74 
2 *457:8 *457:10 1.125 
3 *457:10 *1362:A 4.98 
4 *457:10 *457:27 9.28 
5 *457:27 *457:29 2.4 
6 *457:29 *457:37 9.35 
7 *457:37 *457:45 5.675 
8 *457:45 *1388:C 7.305 
9 *457:45 *457:58 4.185 
10 *457:58 *1381:A2 5.43 
11 *457:58 *1192:B 8.19 
12 *457:37 *1235:A2 1.6 
13 *457:29 *1348:A 3.6 
14 *457:27 *1193:A2 8.325 
15 *457:8 *1431:A 15.435 
*END

*D_NET *458 0.013313
*CONN
*I *1429:A I *D sky130_fd_sc_hd__nand2_2
*I *1428:A I *D sky130_fd_sc_hd__or2_2
*I *1620:A I *D sky130_fd_sc_hd__clkdlybuf4s25_1
*I *1570:Q O *D sky130_fd_sc_hd__dfxtp_2
*CAP
1 *1429:A 0.00189235
2 *1428:A 0.00143542
3 *1620:A 0.000106764
4 *1570:Q 0
5 *458:8 0.00160091
6 *458:6 0.00195109
7 *1428:A *1189:C 4.3606e-06
8 *1428:A *1428:B 0.00100119
9 *1428:A *568:33 0
10 *1428:A *572:50 4.31143e-05
11 *1428:A *573:82 0.000265063
12 *1429:A *1350:D 0.000427977
13 *1429:A *1370:B1 7.02659e-05
14 *1429:A *1429:B 0
15 *1429:A *1605:A 0.00102515
16 *1429:A *532:70 1.80324e-05
17 *1429:A *533:46 4.143e-05
18 *1429:A *534:14 2.97872e-06
19 *1429:A *542:8 0.000128435
20 *1620:A *537:38 0
21 *458:8 *533:46 4.43871e-06
22 uo_out[3] *1429:A 5.05437e-05
23 *1183:B *1428:A 0
24 *1187:B1 *1428:A 0
25 *1253:B *1429:A 3.24583e-05
26 *1254:C *1429:A 0
27 *1351:B *1620:A 0.000119631
28 *1364:B1 *458:8 0
29 *1436:B1 *1428:A 5.63183e-05
30 *1436:B2 *1429:A 0.000534095
31 *1441:A *1428:A 0.000160702
32 *1575:D *1429:A 0.00130059
33 *1624:A *1429:A 6.52967e-05
34 *134:93 *1429:A 0
35 *291:16 *1429:A 3.28682e-05
36 *291:31 *1429:A 0.000144277
37 *297:14 *1429:A 1.7635e-05
38 *297:45 *1429:A 0.000136386
39 *347:31 *1429:A 0
40 *378:42 *1429:A 0.0001873
41 *378:42 *1620:A 0.000326376
42 *378:42 *458:8 0.000129591
43 *425:54 *1429:A 0
*RES
1 *1570:Q *458:6 3.6 
2 *458:6 *458:8 1.5075 
3 *458:8 *1620:A 6.9375 
4 *458:8 *1428:A 10.6026 
5 *458:6 *1429:A 28.4463 
*END

*D_NET *459 0.00223609
*CONN
*I *1619:A I *D sky130_fd_sc_hd__clkdlybuf4s25_1
*I *1618:A I *D sky130_fd_sc_hd__clkdlybuf4s25_1
*I *1571:Q O *D sky130_fd_sc_hd__dfxtp_2
*CAP
1 *1619:A 7.61035e-05
2 *1618:A 9.30566e-05
3 *1571:Q 0.000258573
4 *459:10 0.000427733
5 *1213:D *1619:A 8.43862e-05
6 *1349:B *1618:A 0.000190102
7 *1349:B *459:10 7.9642e-06
8 *98:28 *459:10 0.000311294
9 *288:38 *459:10 5.39181e-05
10 *291:16 *1619:A 0.00015639
11 *300:22 *1618:A 0.000148488
12 *300:22 *459:10 0.000101821
13 *425:54 *1618:A 8.73147e-06
14 *425:58 *1618:A 1.39456e-05
15 *452:22 *1619:A 0.00030358
*RES
1 *1571:Q *459:10 7.845 
2 *459:10 *1618:A 6 
3 *459:10 *1619:A 6.465 
*END

*D_NET *460 0.0195784
*CONN
*I *1426:A I *D sky130_fd_sc_hd__or2_2
*I *1427:A I *D sky130_fd_sc_hd__nand2_2
*I *1375:B I *D sky130_fd_sc_hd__and3_2
*I *1350:C I *D sky130_fd_sc_hd__or4_2
*I *1373:C1 I *D sky130_fd_sc_hd__a211o_2
*I *1372:A I *D sky130_fd_sc_hd__nand2_2
*I *1383:B I *D sky130_fd_sc_hd__and3_2
*I *1385:A2 I *D sky130_fd_sc_hd__a21oi_2
*I *1225:B I *D sky130_fd_sc_hd__nand2_2
*I *1368:A I *D sky130_fd_sc_hd__or3_2
*I *1573:Q O *D sky130_fd_sc_hd__dfxtp_2
*CAP
1 *1426:A 0.00206301
2 *1427:A 0.000159569
3 *1375:B 0
4 *1350:C 0.000392112
5 *1373:C1 0
6 *1372:A 2.21004e-05
7 *1383:B 0
8 *1385:A2 2.08101e-05
9 *1225:B 0.000135372
10 *1368:A 0.000344173
11 *1573:Q 0
12 *460:132 0.00242479
13 *460:117 0.000312405
14 *460:65 0.000422331
15 *460:61 0.000529778
16 *460:51 0.000704837
17 *460:30 0.000990069
18 *460:22 0.000402744
19 *460:10 0.00104332
20 *460:4 0.000585448
21 *1225:B *531:49 9.50342e-06
22 *1225:B *531:66 5.59959e-05
23 *1350:C *1350:D 0.000114172
24 *1350:C *1368:B 9.82856e-06
25 *1350:C *532:8 8.90087e-05
26 *1350:C *532:16 5.83373e-05
27 *1350:C *533:46 5.38986e-06
28 *1350:C *542:8 3.85705e-05
29 *1426:A *1426:B 4.82863e-05
30 *1426:A *1440:B 0.000232584
31 *1426:A *1490:A 7.87761e-05
32 *1426:A *1490:B 4.66108e-05
33 *1426:A *1500:A 0.000189176
34 *1426:A *1652:A 0.000198051
35 *1426:A *1653:A 4.66202e-05
36 *1426:A *1657:A 1.83975e-05
37 *1426:A *483:32 6.3712e-05
38 *1426:A *490:6 0.000937963
39 *1426:A *502:26 0.00013068
40 *1427:A *1429:B 4.52957e-05
41 *460:10 *461:28 0
42 *460:10 *502:26 0.000116165
43 *460:10 *518:40 0.000456826
44 *460:10 *542:8 0
45 *460:30 *461:28 0.000160256
46 *460:51 *1369:A1 0.000123955
47 *460:51 *532:18 7.38676e-05
48 *460:61 *1382:B 0
49 *460:65 *1383:A 3.09088e-05
50 *460:65 *531:66 2.11084e-05
51 *460:132 *1376:A2 9.21745e-05
52 *460:132 *502:26 9.54144e-05
53 uo_out[4] *1427:A 7.6526e-05
54 *1213:B *1350:C 3.96088e-05
55 *1213:B *460:61 4.43871e-06
56 *1364:A2 *1350:C 0.00015806
57 *1370:A2 *1225:B 9.9468e-05
58 *1372:B *460:61 0
59 *1373:B1 *460:22 3.21081e-06
60 *1374:A1 *1350:C 0
61 *1374:A1 *460:22 8.69417e-06
62 *1374:A2 *460:22 4.27145e-05
63 *1375:C *460:10 1.44259e-05
64 *1376:B1 *460:10 0
65 *1376:C1 *460:10 0.000118081
66 *1376:C1 *460:117 0.00015639
67 *1376:C1 *460:132 4.66108e-05
68 *1378:A2 *460:51 2.53191e-06
69 *1383:C *1385:A2 0
70 *1435:A1 *1426:A 0.0003879
71 *1436:A1 *1427:A 8.26958e-05
72 *1508:A1 *1426:A 0.000195482
73 *1508:A2 *1426:A 3.29341e-05
74 *1570:CLK *460:51 0.000195351
75 *1572:CLK *460:51 1.88153e-05
76 *1575:D *1368:A 9.66147e-05
77 *1575:D *460:30 0.000100994
78 *1576:D *1427:A 0
79 *1577:D *460:22 0.000105074
80 *1577:D *460:30 7.00223e-05
81 *1578:D *460:30 4.60526e-05
82 *1580:CLK *1427:A 6.62665e-05
83 *1580:D *1426:A 0.000164382
84 *1591:D *460:132 9.08248e-05
85 *1592:CLK *1426:A 0.000363755
86 *1594:D *1426:A 0.000184681
87 *1596:CLK *1426:A 0.000331549
88 *1596:D *1426:A 0.00020525
89 *1599:D *1426:A 9.30717e-05
90 *1600:D *1426:A 0.000552363
91 *1617:A *1350:C 1.52945e-05
92 *212:10 *1225:B 0.000120186
93 *213:8 *1225:B 1.07797e-05
94 *297:14 *460:10 0
95 *297:22 *460:22 0.000169759
96 *297:45 *1368:A 1.88602e-05
97 *300:22 *1350:C 0.00015639
98 *300:22 *460:51 1.52352e-05
99 *300:22 *460:61 0.000191122
100 *300:22 *460:65 0.000160635
101 *309:43 *460:65 2.0514e-05
102 *310:12 *460:61 0.000198149
103 *332:34 *1225:B 8.9067e-05
104 *347:31 *1368:A 4.19316e-05
105 *347:31 *460:30 7.51751e-05
106 *424:206 *1426:A 0
107 *433:10 *1427:A 0
*RES
1 *1573:Q *460:4 1.6 
2 *460:4 *460:10 10.5125 
3 *460:10 *460:22 5.9225 
4 *460:22 *460:30 4.9051 
5 *460:30 *1368:A 4.83663 
6 *460:30 *460:51 9.4975 
7 *460:51 *460:61 9.13 
8 *460:61 *460:65 3.57 
9 *460:65 *1225:B 9.14 
10 *460:65 *1385:A2 1.96 
11 *460:61 *1383:B 1.6 
12 *460:51 *1372:A 1.96 
13 *460:22 *1373:C1 1.6 
14 *460:10 *1350:C 11.8875 
15 *460:4 *460:117 1.485 
16 *460:117 *1375:B 1.6 
17 *460:117 *460:132 7.75 
18 *460:132 *1427:A 9.53 
19 *460:132 *1426:A 47.705 
*END

*D_NET *461 0.00657322
*CONN
*I *1629:A I *D sky130_fd_sc_hd__dlygate4sd3_1
*I *1377:A I *D sky130_fd_sc_hd__nand2_2
*I *1223:B I *D sky130_fd_sc_hd__nand2_2
*I *1384:A1 I *D sky130_fd_sc_hd__mux2_1
*I *1574:Q O *D sky130_fd_sc_hd__dfxtp_2
*CAP
1 *1629:A 0
2 *1377:A 0.000508201
3 *1223:B 3.07705e-05
4 *1384:A1 0.000111438
5 *1574:Q 0.000162115
6 *461:28 0.000983191
7 *461:18 0.00137987
8 *461:14 0.000192803
9 *1223:B *533:46 1.77665e-05
10 *1377:A *1495:B 0
11 *1377:A *502:26 0
12 *1377:A *518:40 0
13 *461:14 *1379:A2 4.16262e-05
14 *461:14 *518:40 0.000162311
15 *461:14 *534:14 2.97004e-06
16 *461:14 *534:33 4.62226e-05
17 *461:18 *518:40 0.000160635
18 *461:28 *1364:A1 0.000180682
19 *461:28 *1369:A2 4.80085e-05
20 *461:28 *531:12 0
21 *461:28 *532:40 5.69248e-06
22 *461:28 *533:46 2.86265e-06
23 *461:28 *569:62 0.000172323
24 *1374:A1 *461:28 0.000261461
25 *1375:C *461:14 0.000364831
26 *1375:C *461:18 0.000142768
27 *1376:A1 *1377:A 0.000143115
28 *1376:B1 *1377:A 0.000348367
29 *1376:B1 *461:28 0.00011379
30 *1376:C1 *1377:A 7.19743e-05
31 *1377:B *1377:A 5.29016e-05
32 *1378:A1 *461:18 2.87433e-05
33 *1378:B1 *1377:A 4.66108e-05
34 *1436:A2 *461:14 4.82919e-05
35 *1570:CLK *461:28 0
36 *1570:D *461:28 1.17666e-05
37 *1573:D *1377:A 3.99855e-05
38 *1577:D *1377:A 0.000237563
39 *1577:D *461:28 1.95052e-05
40 *1578:D *461:28 1.92875e-05
41 *1579:D *461:14 4.43871e-06
42 *188:10 *1223:B 6.38275e-05
43 *188:10 *461:28 8.41307e-05
44 *297:45 *461:28 0.000100111
45 *460:10 *461:28 0
46 *460:30 *461:28 0.000160256
*RES
1 *1574:Q *461:14 10.205 
2 *461:14 *461:18 3.485 
3 *461:18 *461:28 18.985 
4 *461:28 *1384:A1 4.74 
5 *461:28 *1223:B 4.41 
6 *461:18 *1377:A 14.175 
7 *461:14 *1629:A 1.6 
*END

*D_NET *462 0.00566046
*CONN
*I *1213:C I *D sky130_fd_sc_hd__and4b_2
*I *1370:A1 I *D sky130_fd_sc_hd__o21a_2
*I *1528:D I *D sky130_fd_sc_hd__dfxtp_2
*I *1211:Y O *D sky130_fd_sc_hd__o2111ai_2
*CAP
1 *1213:C 0.000314167
2 *1370:A1 3.66425e-05
3 *1528:D 0
4 *1211:Y 0.0010949
5 *462:27 0.000552659
6 *462:16 0.00129675
7 *1370:A1 *1370:B1 4.92971e-05
8 *462:16 *1445:A1 0.000266164
9 *462:16 *589:46 0
10 *462:27 *1370:B1 8.59365e-05
11 *1213:B *1213:C 4.99619e-05
12 *1250:C *462:16 4.66108e-05
13 *1293:C *462:16 4.99619e-05
14 *1407:A *462:16 5.4003e-05
15 *1409:A *462:16 8.8266e-05
16 *1412:B *462:16 4.82919e-05
17 *1419:A1 *462:16 0.00027042
18 *1419:B1 *462:16 7.68414e-06
19 *1420:A1 *462:16 6.50498e-05
20 *1420:A3 *462:16 8.65348e-05
21 *1423:A1 *1213:C 0.0001249
22 *1445:A2 *462:16 4.66108e-05
23 *1582:D *462:16 0
24 *133:48 *462:16 0.000204456
25 *213:8 *1370:A1 0
26 *213:8 *462:27 0
27 *300:22 *1213:C 3.19917e-05
28 *334:8 *462:16 8.08153e-06
29 *339:20 *462:16 8.23457e-05
30 *347:12 *462:16 2.05571e-05
31 *433:152 *462:16 0.000113663
32 *433:152 *462:27 0.000326753
33 *433:160 *462:16 0.000237803
*RES
1 *1211:Y *462:16 26.2738 
2 *462:16 *1528:D 1.6 
3 *462:16 *462:27 6.10625 
4 *462:27 *1370:A1 4.215 
5 *462:27 *1213:C 7.5 
*END

*D_NET *463 0.0051353
*CONN
*I *1605:A I *D sky130_fd_sc_hd__buf_2
*I *1213:A_N I *D sky130_fd_sc_hd__and4b_2
*I *1528:Q O *D sky130_fd_sc_hd__dfxtp_2
*CAP
1 *1605:A 0.00105125
2 *1213:A_N 0.000154437
3 *1528:Q 0.00120569
4 *1213:A_N *1382:B 0
5 *1605:A *1370:B1 6.50498e-05
6 *1605:A *1424:A 0
7 *1605:A *582:45 0.000807955
8 *1605:A *585:145 8.65961e-05
9 uio_out[0] *1605:A 1.00941e-05
10 uio_out[2] *1605:A 0
11 uo_out[3] *1605:A 0
12 uo_out[7] *1605:A 1.17036e-05
13 *1256:B *1605:A 0.000119474
14 *1262:C *1605:A 0.000281633
15 *1429:A *1605:A 0.00102515
16 *1575:CLK *1605:A 0
17 *1625:A *1605:A 5.06382e-06
18 *213:8 *1213:A_N 4.77701e-05
19 *213:8 *1605:A 2.97291e-05
20 *433:152 *1213:A_N 6.97118e-05
21 *433:152 *1605:A 5.30673e-05
22 *437:14 *1605:A 0
23 *438:54 *1605:A 0.000110929
*RES
1 *1528:Q *1213:A_N 9.465 
2 *1528:Q *1605:A 36.64 
*END

*D_NET *464 0.00437321
*CONN
*I *1603:A I *D sky130_fd_sc_hd__buf_2
*I *1222:Y O *D sky130_fd_sc_hd__a21oi_2
*CAP
1 *1603:A 0.00121777
2 *1222:Y 0.00121777
3 *1603:A *1210:A1 2.24748e-05
4 *1603:A *1275:A 0.000131874
5 *1603:A *533:91 0.000173166
6 *1603:A *540:46 0.00012263
7 *1603:A *589:46 0.000196596
8 *1603:A *589:48 0.000116165
9 uio_oe[0] *1603:A 0
10 uio_out[7] *1603:A 2.937e-05
11 *1211:D1 *1603:A 0.000116165
12 *1296:B *1603:A 0.00035442
13 *1417:A2 *1603:A 9.18454e-05
14 *1417:B1 *1603:A 4.18904e-05
15 *1417:B2 *1603:A 9.54399e-05
16 *1418:B *1603:A 0
17 *1539:D *1603:A 0.000114492
18 *1543:CLK *1603:A 0
19 *175:25 *1603:A 0
20 *175:38 *1603:A 1.07563e-05
21 *434:101 *1603:A 0
22 *434:103 *1603:A 0
23 *442:62 *1603:A 0.000243555
24 *442:70 *1603:A 7.68304e-05
*RES
1 *1222:Y *1603:A 32.31 
*END

*D_NET *465 0.00493758
*CONN
*I *1637:A I *D sky130_fd_sc_hd__dlygate4sd3_1
*I *1158:A I *D sky130_fd_sc_hd__and3_2
*I *1159:A1 I *D sky130_fd_sc_hd__a21oi_2
*I *1546:Q O *D sky130_fd_sc_hd__dfrtp_2
*CAP
1 *1637:A 0.000398282
2 *1158:A 0
3 *1159:A1 0.000123686
4 *1546:Q 0
5 *465:16 0.000542032
6 *465:6 0.000816628
7 *1159:A1 *1159:A2 4.1339e-05
8 *1159:A1 *1159:B1 4.77719e-05
9 *1159:A1 *1160:B 0.000125897
10 *1159:A1 *570:34 2.77052e-05
11 *1637:A *1141:A 0.000306812
12 *1637:A *1157:A 0.000230926
13 *1637:A *1514:B 0.000116158
14 *1637:A *473:42 1.9415e-05
15 *1637:A *588:18 5.92269e-05
16 *1637:A *588:22 4.80285e-05
17 *465:16 *1143:A 0.000163031
18 *465:16 *1158:C 0.000226176
19 *465:16 *1159:A2 4.66108e-05
20 *465:16 *1159:B1 5.9155e-05
21 *465:16 *1160:B 0.000119866
22 *465:16 *1514:B 0.000393829
23 *465:16 *466:20 1.77665e-05
24 *465:16 *467:19 0.000209174
25 *465:16 *588:18 0.000501598
26 *1160:A *1159:A1 0
27 *1161:B *465:16 0.00011352
28 *1669:clk *1159:A1 3.63701e-06
29 *140:12 *1159:A1 0.00017931
*RES
1 *1546:Q *465:6 3.6 
2 *465:6 *465:16 15.035 
3 *465:16 *1159:A1 9.125 
4 *465:16 *1158:A 1.6 
5 *465:6 *1637:A 11.655 
*END

*D_NET *466 0.00542395
*CONN
*I *1642:A I *D sky130_fd_sc_hd__dlygate4sd3_1
*I *1142:A I *D sky130_fd_sc_hd__inv_2
*I *1159:A2 I *D sky130_fd_sc_hd__a21oi_2
*I *1158:B I *D sky130_fd_sc_hd__and3_2
*I *1547:Q O *D sky130_fd_sc_hd__dfrtp_2
*CAP
1 *1642:A 0.000297219
2 *1142:A 2.85288e-05
3 *1159:A2 0.0003811
4 *1158:B 0
5 *1547:Q 0
6 *466:54 0.000408422
7 *466:20 0.0010079
8 *466:6 0.000709474
9 *1159:A2 *1159:B1 9.15237e-06
10 *1159:A2 *1160:B 0.00028374
11 *1159:A2 *570:34 0
12 *1642:A *1157:B 0.000236355
13 *1642:A *1516:A2 4.99031e-05
14 *1642:A *570:47 0.000201289
15 *1642:A *582:37 0
16 *1642:A *588:36 4.10051e-05
17 *466:20 *1158:C 1.16854e-05
18 *466:20 *1161:A 3.1354e-05
19 *466:20 *1514:B 6.56448e-06
20 *466:20 *1669:rst_n 0.000131577
21 *466:20 *1671:B 0.000203288
22 *466:20 *1672:A 0.000102315
23 *466:20 *1672:D 3.51805e-05
24 *466:20 *570:34 4.9968e-05
25 *466:20 *570:47 0.000134516
26 *466:20 *580:22 9.49828e-05
27 *466:20 *587:22 0.000126159
28 *466:54 *570:47 0.000219706
29 *466:54 *582:37 0
30 *1159:A1 *1159:A2 4.1339e-05
31 *1163:A *466:20 0
32 *1215:C1 *1142:A 5.83121e-06
33 *1215:C1 *466:20 0.000134516
34 *1215:C1 *466:54 0.000183043
35 *1522:B2 *1642:A 7.81417e-05
36 *1548:D *1159:A2 0
37 *1549:D *466:20 4.55308e-05
38 *1644:A *1159:A2 3.60024e-06
39 *1669:clk *1142:A 1.56428e-05
40 *1669:clk *1159:A2 0
41 *251:43 *1642:A 5.05437e-05
42 *465:16 *1159:A2 4.66108e-05
43 *465:16 *466:20 1.77665e-05
*RES
1 *1547:Q *466:6 3.6 
2 *466:6 *466:20 16.735 
3 *466:20 *1158:B 3.6 
4 *466:20 *1159:A2 9.945 
5 *466:6 *466:54 2.655 
6 *466:54 *1142:A 4.05 
7 *466:54 *1642:A 10.305 
*END

*D_NET *467 0.00225989
*CONN
*I *1143:A I *D sky130_fd_sc_hd__inv_2
*I *1643:A I *D sky130_fd_sc_hd__dlygate4sd3_1
*I *1158:C I *D sky130_fd_sc_hd__and3_2
*I *1548:Q O *D sky130_fd_sc_hd__dfrtp_2
*CAP
1 *1143:A 0.000103653
2 *1643:A 4.01283e-05
3 *1158:C 0.000172854
4 *1548:Q 0
5 *467:19 0.00021818
6 *467:6 0.000247253
7 *1143:A *1514:B 0.000171563
8 *1143:A *582:14 2.10152e-05
9 *1158:C *1514:B 7.23602e-05
10 *1643:A *1159:B1 6.33103e-05
11 *1643:A *1162:A 0.000119242
12 *467:19 *1514:B 0.000218677
13 *1163:B *1143:A 0.000119242
14 *127:6 *1143:A 8.23457e-05
15 *465:16 *1143:A 0.000163031
16 *465:16 *1158:C 0.000226176
17 *465:16 *467:19 0.000209174
18 *466:20 *1158:C 1.16854e-05
*RES
1 *1548:Q *467:6 3.6 
2 *467:6 *1158:C 6.3 
3 *467:6 *467:19 2.655 
4 *467:19 *1643:A 4.74 
5 *467:19 *1143:A 6.885 
*END

*D_NET *468 0.00333223
*CONN
*I *1144:A I *D sky130_fd_sc_hd__inv_2
*I *1161:A I *D sky130_fd_sc_hd__and2_2
*I *1162:A I *D sky130_fd_sc_hd__nor2_2
*I *1549:Q O *D sky130_fd_sc_hd__dfrtp_2
*CAP
1 *1144:A 3.28714e-05
2 *1161:A 0.000103626
3 *1162:A 0.000496769
4 *1549:Q 0
5 *468:6 0.000776772
6 *468:4 0.000209248
7 *1144:A *1549:RESET_B 8.8266e-05
8 *1161:A *1672:A 3.59531e-06
9 *1161:A *1672:B 4.82919e-05
10 *1161:A *1672:D 6.83488e-05
11 *1161:A *577:26 1.23268e-05
12 *1162:A *1159:B1 3.9232e-05
13 *1162:A *1160:B 2.97522e-05
14 *1162:A *1672:D 2.49909e-05
15 *468:6 *1549:RESET_B 6.55832e-05
16 *468:6 *1672:D 0.000254821
17 *1161:B *1161:A 4.99619e-05
18 *1163:A *1161:A 0.000113379
19 *1163:B *1162:A 3.71665e-05
20 *1166:A2 *1144:A 4.60584e-05
21 *1166:A2 *468:6 0.0001249
22 *1549:CLK *1162:A 9.53428e-06
23 *1643:A *1162:A 0.000119242
24 *1644:A *1162:A 0.000119242
25 *128:14 *468:6 3.48289e-05
26 *426:70 *1162:A 5.78185e-05
27 *426:70 *468:6 4.49945e-05
28 *426:74 *1162:A 0.000289252
29 *466:20 *1161:A 3.1354e-05
*RES
1 *1549:Q *468:4 1.6 
2 *468:4 *468:6 5.28 
3 *468:6 *1162:A 11.965 
4 *468:6 *1161:A 8.195 
5 *468:4 *1144:A 2.755 
*END

*D_NET *469 0.00118381
*CONN
*I *1166:A1 I *D sky130_fd_sc_hd__a21oi_2
*I *1165:A I *D sky130_fd_sc_hd__and3_2
*I *1145:A I *D sky130_fd_sc_hd__inv_2
*I *1550:Q O *D sky130_fd_sc_hd__dfrtp_2
*CAP
1 *1166:A1 5.66458e-05
2 *1165:A 2.37174e-05
3 *1145:A 8.00779e-06
4 *1550:Q 0.000139328
5 *469:14 0.000193733
6 *469:10 0.000357982
7 *1145:A *1672:C 4.82863e-05
8 *1165:A *1672:C 7.378e-05
9 *469:10 *1623:A 0
10 *469:14 *1623:A 0
11 *1165:C *1145:A 2.30292e-05
12 *1165:C *1165:A 8.8266e-05
13 *1167:B *469:10 7.23533e-05
14 *144:10 *469:10 1.38321e-05
15 *144:10 *469:14 5.72152e-05
16 *426:58 *469:10 2.76356e-05
*RES
1 *1550:Q *469:10 5.775 
2 *469:10 *469:14 4.4 
3 *469:14 *1145:A 2.05 
4 *469:14 *1165:A 2.755 
5 *469:10 *1166:A1 4.395 
*END

*D_NET *470 0.00265122
*CONN
*I *1646:A I *D sky130_fd_sc_hd__dlygate4sd3_1
*I *1165:B I *D sky130_fd_sc_hd__and3_2
*I *1146:A I *D sky130_fd_sc_hd__inv_2
*I *1551:Q O *D sky130_fd_sc_hd__dfrtp_2
*CAP
1 *1646:A 0.000130681
2 *1165:B 0.000105373
3 *1146:A 8.11397e-05
4 *1551:Q 0.000380343
5 *470:10 0.000230685
6 *470:8 0.000555197
7 *1146:A *1672:C 8.06286e-05
8 *1146:A *580:36 0
9 *1646:A *585:43 4.82863e-05
10 *470:8 *1166:B1 6.97118e-05
11 *470:8 *580:36 0.000207896
12 *1168:B *1146:A 5.05521e-05
13 *1168:B *1165:B 8.65905e-05
14 *1169:B *1646:A 0.000122331
15 *1220:B2 *1646:A 4.21973e-05
16 *1551:D *1646:A 6.84996e-05
17 *130:14 *1146:A 8.53113e-06
18 *130:14 *1646:A 0.000218042
19 *130:14 *470:10 6.83447e-05
20 *144:10 *1146:A 0
21 *144:10 *1165:B 8.8266e-05
22 *144:10 *1646:A 0
23 *144:10 *470:10 0
24 *426:25 *470:8 7.9205e-06
*RES
1 *1551:Q *470:8 8.535 
2 *470:8 *470:10 0.87 
3 *470:10 *1146:A 5.265 
4 *470:10 *1165:B 5.085 
5 *470:8 *1646:A 7.395 
*END

*D_NET *471 0.00276845
*CONN
*I *1147:A I *D sky130_fd_sc_hd__inv_2
*I *1169:A I *D sky130_fd_sc_hd__or2_2
*I *1168:A I *D sky130_fd_sc_hd__nand2_2
*I *1552:Q O *D sky130_fd_sc_hd__dfrtp_2
*CAP
1 *1147:A 0
2 *1169:A 4.08797e-05
3 *1168:A 0.000328612
4 *1552:Q 0.000394738
5 *471:33 9.04021e-05
6 *471:6 0.000772872
7 *1168:A *1551:RESET_B 0.000122331
8 *1168:A *1672:C 7.60965e-05
9 *471:6 *1551:RESET_B 0.000143539
10 *471:6 *580:36 0.00017168
11 *471:33 *1552:RESET_B 0
12 *471:33 *579:52 9.54399e-05
13 *1170:A *1168:A 8.8266e-05
14 *1170:B *1168:A 0.000162801
15 *1170:B *1169:A 4.82919e-05
16 *1170:B *471:33 5.02217e-05
17 *1171:B *1168:A 0
18 *1222:B1 *1169:A 0.000124895
19 *1552:CLK *1168:A 4.88555e-05
20 *426:36 *1168:A 8.53113e-06
21 *426:36 *471:33 0
*RES
1 *1552:Q *471:6 6.88 
2 *471:6 *1168:A 11.795 
3 *471:6 *471:33 5.38 
4 *471:33 *1169:A 2.74 
5 *471:33 *1147:A 1.6 
*END

*D_NET *472 0.00325156
*CONN
*I *1639:A I *D sky130_fd_sc_hd__dlygate4sd3_1
*I *1214:A_N I *D sky130_fd_sc_hd__and2b_2
*I *1219:B I *D sky130_fd_sc_hd__nand2b_2
*I *1553:Q O *D sky130_fd_sc_hd__dfrtp_2
*CAP
1 *1639:A 0
2 *1214:A_N 0.000199857
3 *1219:B 0.000211031
4 *1553:Q 0.000169159
5 *472:27 0.000305333
6 *472:8 0.000485666
7 *1214:A_N *1137:A 0.000275548
8 *1214:A_N *1206:B 4.66108e-05
9 *1214:A_N *1219:A_N 6.36331e-05
10 *1219:B *1171:A 8.30853e-06
11 *1219:B *1198:D_N 0
12 *1219:B *1219:A_N 0
13 *1219:B *580:47 0
14 *472:8 *1553:RESET_B 8.90343e-05
15 *472:8 *583:76 3.11593e-05
16 *472:27 *1171:A 6.18274e-05
17 *472:27 *1207:A 1.42807e-05
18 *1221:B2 *1214:A_N 0.0001249
19 *1222:A2 *1219:B 3.78026e-05
20 *1222:A2 *472:27 1.31828e-05
21 *1222:B1 *1219:B 0.000150154
22 *1222:B1 *472:27 2.74056e-05
23 *1527:CLK *1214:A_N 0.000275399
24 *1527:CLK *472:27 0.000311481
25 *175:8 *1214:A_N 4.99619e-05
26 *175:8 *472:27 0.000299823
*RES
1 *1553:Q *472:8 5.775 
2 *472:8 *1219:B 7.41 
3 *472:8 *472:27 6.245 
4 *472:27 *1214:A_N 7.345 
5 *472:27 *1639:A 1.6 
*END

*D_NET *473 0.00741989
*CONN
*I *1302:A I *D sky130_fd_sc_hd__and3_2
*I *1301:B1 I *D sky130_fd_sc_hd__a21o_2
*I *1635:A I *D sky130_fd_sc_hd__dlygate4sd3_1
*I *1521:A I *D sky130_fd_sc_hd__xor2_2
*I *1554:Q O *D sky130_fd_sc_hd__dfxtp_2
*CAP
1 *1302:A 0.000442332
2 *1301:B1 0
3 *1635:A 0.00025041
4 *1521:A 7.46518e-05
5 *1554:Q 3.36109e-05
6 *473:42 0.00173024
7 *473:12 0.000466994
8 *473:10 0.00146346
9 *1302:A *1299:B 8.65905e-05
10 *1302:A *533:91 0.000153308
11 *1302:A *533:93 0.00015859
12 *1302:A *533:101 2.11336e-05
13 *1521:A *1141:A 1.77665e-05
14 *1635:A *1297:A 0.000131666
15 *473:10 *1516:B1 3.6227e-05
16 *473:12 *1141:A 7.40635e-05
17 *473:42 *1148:A 1.83847e-05
18 *473:42 *1309:A 2.75145e-05
19 *473:42 *1518:A2 3.51596e-05
20 *473:42 *1623:A 8.65961e-05
21 *473:42 *533:101 0.000396937
22 *473:42 *582:37 1.34503e-05
23 *473:42 *587:38 2.8585e-06
24 *473:42 *588:22 0.000127938
25 *1297:B *1635:A 0.00028175
26 *1301:A1 *1302:A 0.000198051
27 *1302:C *1302:A 0.00010043
28 *1309:B *473:42 0.000313852
29 *1518:A1 *473:42 4.82603e-05
30 *1520:B1 *473:42 9.27255e-06
31 *1523:D *473:42 0.000341885
32 *1556:D *473:42 6.32842e-05
33 *1637:A *473:42 1.9415e-05
34 *132:6 *473:42 0.000193806
*RES
1 *1554:Q *473:10 6.47 
2 *473:10 *473:12 1.83 
3 *473:12 *1521:A 2.665 
4 *473:12 *1635:A 11.195 
5 *473:10 *473:42 20.415 
6 *473:42 *1301:B1 1.6 
7 *473:42 *1302:A 9.82 
*END

*D_NET *474 0.00314296
*CONN
*I *1300:A_N I *D sky130_fd_sc_hd__nand2b_2
*I *1299:B I *D sky130_fd_sc_hd__nand2b_2
*I *1137:A I *D sky130_fd_sc_hd__inv_2
*I *1555:Q O *D sky130_fd_sc_hd__dfxtp_2
*CAP
1 *1300:A_N 0
2 *1299:B 1.41866e-05
3 *1137:A 0.000254145
4 *1555:Q 0.000546219
5 *474:23 1.41866e-05
6 *474:10 0.000800364
7 *1137:A *1221:B1 0
8 *1137:A *537:160 0
9 *1299:B *533:93 8.65905e-05
10 *474:10 *537:160 0
11 *474:10 *586:103 7.26176e-06
12 *474:10 *587:72 0.000197826
13 *1214:A_N *1137:A 0.000275548
14 *1302:A *1299:B 8.65905e-05
15 *1527:CLK *1137:A 0.000385327
16 *1555:CLK *1137:A 5.78055e-05
17 *1555:CLK *474:10 3.32593e-05
18 *250:12 *474:10 0.000383652
*RES
1 *1555:Q *474:10 10.95 
2 *474:10 *1137:A 9.555 
3 *474:10 *474:23 2 
4 *474:23 *1299:B 2.395 
5 *474:23 *1300:A_N 1.6 
*END

*D_NET *475 0.00379076
*CONN
*I *1305:A I *D sky130_fd_sc_hd__nand2_2
*I *1306:A I *D sky130_fd_sc_hd__or2_2
*I *1518:B2 I *D sky130_fd_sc_hd__a221o_2
*I *1520:B2 I *D sky130_fd_sc_hd__o221a_2
*I *1556:Q O *D sky130_fd_sc_hd__dfxtp_2
*CAP
1 *1305:A 0.000389019
2 *1306:A 0
3 *1518:B2 1.31709e-05
4 *1520:B2 0.000229017
5 *1556:Q 0
6 *475:36 0.000521285
7 *475:10 0.00053892
8 *475:4 0.000428997
9 *1305:A *535:78 1.92979e-05
10 *1305:A *538:66 0.000120546
11 *1305:A *570:64 0.000193629
12 *1520:B2 *1513:B 0
13 *1520:B2 *1519:B 3.09164e-05
14 *1520:B2 *587:38 3.67779e-05
15 *1520:B2 *589:26 1.81619e-05
16 *1305:B *1305:A 7.22329e-05
17 *1518:C1 *1520:B2 4.55864e-06
18 *1518:C1 *475:10 5.38001e-05
19 *1520:B1 *1520:B2 5.60225e-05
20 *1520:C1 *1520:B2 4.82863e-05
21 *1524:A_N *1520:B2 8.44437e-05
22 *1524:B *1520:B2 8.40269e-05
23 *1524:C *475:10 0
24 *1556:D *475:10 0.000311294
25 *1556:D *475:36 4.82863e-05
26 *1669:clk *1520:B2 5.70968e-05
27 *122:25 *1520:B2 1.23392e-05
28 *132:6 *1518:B2 2.49708e-05
29 *133:18 *1305:A 0.000281798
30 *251:33 *1305:A 4.66108e-05
31 *251:33 *475:36 3.38341e-05
32 *251:43 *475:36 2.16917e-05
33 *253:6 *1305:A 3.64998e-06
34 *255:6 *1305:A 6.07575e-06
*RES
1 *1556:Q *475:4 1.6 
2 *475:4 *475:10 6.245 
3 *475:10 *1520:B2 8.445 
4 *475:10 *1518:B2 3.84 
5 *475:4 *475:36 1.845 
6 *475:36 *1306:A 1.6 
7 *475:36 *1305:A 8.88853 
*END

*D_NET *476 0.00509985
*CONN
*I *1311:B1 I *D sky130_fd_sc_hd__o21ai_2
*I *1312:C I *D sky130_fd_sc_hd__or3_2
*I *1519:A I *D sky130_fd_sc_hd__xnor2_2
*I *1557:Q O *D sky130_fd_sc_hd__dfxtp_2
*CAP
1 *1311:B1 0
2 *1312:C 0
3 *1519:A 0.000510239
4 *1557:Q 0.000456554
5 *476:22 0.000715229
6 *476:12 0.000661544
7 *1519:A *1517:A1 6.5591e-05
8 *1519:A *1518:A2 0.000151603
9 *1519:A *536:46 0
10 *1519:A *587:38 0.000303575
11 *476:22 *1311:A2 4.82863e-05
12 *476:22 *1312:A 0.000159741
13 *476:22 *535:129 0.000132872
14 *1314:A1 *1519:A 4.82863e-05
15 *1314:A1 *476:22 0.0001947
16 *1314:A2 *1519:A 0
17 *1314:B1 *476:12 6.19997e-05
18 *1314:B1 *476:22 0.000131508
19 *1515:A2 *1519:A 8.68085e-05
20 *1518:A1 *1519:A 0.000134623
21 *1524:C *1519:A 0.000143345
22 *1556:D *1519:A 3.18219e-05
23 *1557:CLK *476:12 4.82919e-05
24 *1557:D *476:12 0.00013788
25 *1557:D *476:22 0.000307043
26 *1669:clk *1519:A 0.000462359
27 *133:18 *1519:A 9.82856e-06
28 *251:10 *476:22 7.0176e-05
29 *257:10 *476:22 1.61831e-05
30 *442:12 *476:12 9.76295e-06
*RES
1 *1557:Q *476:12 8.305 
2 *476:12 *476:22 10.675 
3 *476:22 *1519:A 18.02 
4 *476:22 *1312:C 1.6 
5 *476:12 *1311:B1 1.6 
*END

*D_NET *477 0.00196045
*CONN
*I *1318:A_N I *D sky130_fd_sc_hd__and2b_2
*I *1513:A I *D sky130_fd_sc_hd__xor2_2
*I *1317:B I *D sky130_fd_sc_hd__and3b_2
*I *1558:Q O *D sky130_fd_sc_hd__dfxtp_2
*CAP
1 *1318:A_N 0.000140267
2 *1513:A 0.000299311
3 *1317:B 0.000197807
4 *1558:Q 6.43848e-05
5 *477:10 0.00055356
6 *477:8 0.000261094
7 *1317:B *533:150 7.5416e-05
8 *1318:A_N *1304:A_N 3.09233e-05
9 *1318:A_N *478:19 8.05681e-05
10 *1318:A_N *586:50 4.82919e-05
11 *477:8 *1304:A_N 4.82919e-05
12 *477:10 *1304:A_N 0.000108322
13 *477:10 *533:150 8.53113e-06
14 *1515:C1 *1317:B 2.45182e-05
15 *1518:C1 *1317:B 0
16 *1518:C1 *1318:A_N 0
17 *1518:C1 *477:10 0
18 *1558:D *477:8 1.91597e-05
*RES
1 *1558:Q *477:8 4.395 
2 *477:8 *477:10 1.38 
3 *477:10 *1317:B 6.3 
4 *477:10 *1513:A 7.965 
5 *477:8 *1318:A_N 6.705 
*END

*D_NET *478 0.00520722
*CONN
*I *1323:A I *D sky130_fd_sc_hd__or2_2
*I *1515:A1 I *D sky130_fd_sc_hd__a221o_2
*I *1517:A1 I *D sky130_fd_sc_hd__o22a_2
*I *1322:A I *D sky130_fd_sc_hd__nand2_2
*I *1559:Q O *D sky130_fd_sc_hd__dfxtp_2
*CAP
1 *1323:A 0.000283296
2 *1515:A1 0.000129593
3 *1517:A1 8.68673e-05
4 *1322:A 0.000188103
5 *1559:Q 0.000403431
6 *478:19 0.000904775
7 *478:17 0.000971611
8 *478:6 0.000591535
9 *478:19 *1304:A_N 7.63047e-05
10 *478:19 *533:150 4.68993e-05
11 *478:19 *536:46 0
12 *1314:A1 *1517:A1 9.57611e-05
13 *1314:A2 *1517:A1 3.114e-05
14 *1314:A2 *478:19 4.43871e-06
15 *1314:B1 *1515:A1 4.82863e-05
16 *1318:A_N *478:19 8.05681e-05
17 *1323:B *1323:A 8.65961e-05
18 *1515:A2 *1515:A1 0.000182351
19 *1515:A2 *1517:A1 5.22577e-05
20 *1515:A2 *478:19 7.21296e-06
21 *1515:C1 *1515:A1 3.45438e-05
22 *1515:C1 *478:19 0
23 *1518:C1 *478:19 0
24 *1519:A *1517:A1 6.5591e-05
25 *1523:A_N *1515:A1 0.00012657
26 *1559:CLK *1322:A 9.02174e-05
27 *1559:CLK *1323:A 0
28 *1559:CLK *478:6 5.83121e-06
29 *1559:D *478:6 0.000394207
30 *256:12 *478:19 0
31 *260:6 *1515:A1 2.59926e-05
32 *263:12 *478:19 4.91189e-05
33 *266:10 *1323:A 9.3062e-06
34 *266:10 *478:19 0.000134815
35 *267:10 *1323:A 0
36 *267:10 *478:19 0
*RES
1 *1559:Q *478:6 6.88 
2 *478:6 *1322:A 4.045 
3 *478:6 *478:17 2 
4 *478:17 *478:19 12.09 
5 *478:19 *1517:A1 5.94 
6 *478:19 *1515:A1 6.81 
7 *478:17 *1323:A 8.25 
*END

*D_NET *479 0.00180551
*CONN
*I *1328:A I *D sky130_fd_sc_hd__nor2_2
*I *1327:A I *D sky130_fd_sc_hd__and2_2
*I *1514:A I *D sky130_fd_sc_hd__xor2_2
*I *1560:Q O *D sky130_fd_sc_hd__dfxtp_2
*CAP
1 *1328:A 0.000110271
2 *1327:A 6.61929e-05
3 *1514:A 0.000101988
4 *1560:Q 7.26239e-05
5 *479:10 0.000257096
6 *479:8 0.00027181
7 *1328:A *582:43 2.68721e-05
8 *1514:A *582:43 8.50176e-05
9 *479:10 *582:43 2.42236e-05
10 *1329:A2 *479:8 2.49909e-05
11 *1330:A1 *1327:A 7.60965e-05
12 *1330:C1 *1327:A 2.75229e-05
13 *1330:C1 *1328:A 5.4003e-05
14 *1330:C1 *479:10 0.000114492
15 *1331:B *1327:A 2.32597e-05
16 *1559:CLK *479:8 8.73389e-06
17 *1560:D *1328:A 0
18 *1560:D *479:10 0
19 *123:14 *1514:A 0
20 *266:16 *1327:A 5.57182e-05
21 *270:10 *1327:A 0.000275553
22 *270:20 *1514:A 0
23 *271:8 *1328:A 0.00012904
*RES
1 *1560:Q *479:8 4.395 
2 *479:8 *479:10 1.89 
3 *479:10 *1514:A 5.49 
4 *479:10 *1327:A 6.48 
5 *479:8 *1328:A 6.255 
*END

*D_NET *480 0.00149655
*CONN
*I *1332:B1 I *D sky130_fd_sc_hd__o21a_2
*I *1138:A I *D sky130_fd_sc_hd__inv_2
*I *1641:A I *D sky130_fd_sc_hd__dlygate4sd3_1
*I *1561:Q O *D sky130_fd_sc_hd__dfxtp_2
*CAP
1 *1332:B1 0.000115739
2 *1138:A 6.27064e-05
3 *1641:A 0
4 *1561:Q 0.000245454
5 *480:12 0.000192422
6 *1138:A *1334:A1 0.000275548
7 *1138:A *1514:B 0.000201508
8 *1334:A3 *1138:A 4.82863e-05
9 *1334:A3 *480:12 0.000109786
10 *1334:B1 *480:12 0.000109786
11 *1562:D *1332:B1 0.000112284
12 *270:20 *1138:A 2.30292e-05
*RES
1 *1561:Q *480:12 7.775 
2 *480:12 *1641:A 1.6 
3 *480:12 *1138:A 4.465 
4 *1561:Q *1332:B1 9.03 
*END

*D_NET *481 0.00133926
*CONN
*I *1336:A I *D sky130_fd_sc_hd__or2_2
*I *1139:A I *D sky130_fd_sc_hd__inv_2
*I *1335:A I *D sky130_fd_sc_hd__nand2_2
*I *1562:Q O *D sky130_fd_sc_hd__dfxtp_2
*CAP
1 *1336:A 0
2 *1139:A 0.000116408
3 *1335:A 7.27063e-05
4 *1562:Q 4.68122e-05
5 *481:21 0.000201781
6 *481:8 0.000204892
7 *481:8 *1514:B 0
8 *1336:B *1139:A 8.57024e-05
9 *1336:B *1335:A 0.000113191
10 *1336:B *481:21 3.83041e-05
11 *123:14 *1335:A 0.000231564
12 *123:14 *481:8 9.54469e-05
13 *251:52 *1335:A 5.53249e-06
14 *277:8 *1139:A 7.82271e-05
15 *277:8 *481:21 2.05056e-05
16 *280:14 *481:21 2.8185e-05
*RES
1 *1562:Q *481:8 4.725 
2 *481:8 *1335:A 6.255 
3 *481:8 *481:21 3.485 
4 *481:21 *1139:A 3.79 
5 *481:21 *1336:A 1.6 
*END

*D_NET *482 0.000645246
*CONN
*I *1140:A I *D sky130_fd_sc_hd__inv_2
*I *1563:Q O *D sky130_fd_sc_hd__dfxtp_2
*CAP
1 *1140:A 0.000299156
2 *1563:Q 0.000299156
3 *1515:B2 *1140:A 3.26889e-05
4 *1515:C1 *1140:A 0
5 *276:12 *1140:A 1.42449e-05
*RES
1 *1563:Q *1140:A 6.68 
*END

*D_NET *483 0.00906418
*CONN
*I *1503:A I *D sky130_fd_sc_hd__nor2_2
*I *1510:A I *D sky130_fd_sc_hd__nor2_2
*I *1507:A I *D sky130_fd_sc_hd__nor2_2
*I *1509:A I *D sky130_fd_sc_hd__and2_2
*I *1502:A I *D sky130_fd_sc_hd__and2_2
*I *1506:A I *D sky130_fd_sc_hd__and2_2
*I *1648:A I *D sky130_fd_sc_hd__buf_1
*I *1472:C I *D sky130_fd_sc_hd__or3_2
*I *1151:A I *D sky130_fd_sc_hd__inv_2
*I *1583:Q O *D sky130_fd_sc_hd__dfxtp_2
*CAP
1 *1503:A 0.000101759
2 *1510:A 0.000114112
3 *1507:A 0
4 *1509:A 0
5 *1502:A 5.62859e-05
6 *1506:A 0
7 *1648:A 0.000377429
8 *1472:C 0
9 *1151:A 0.000216288
10 *1583:Q 0.00040408
11 *483:110 0.000210881
12 *483:108 0.000282898
13 *483:99 0.000230018
14 *483:80 0.000287129
15 *483:40 0.000407704
16 *483:32 0.00113293
17 *483:16 0.00056408
18 *483:14 0.000489275
19 *1151:A *1668:addr[5] 6.03431e-05
20 *1151:A *527:8 0.000160314
21 *1502:A *1507:B 2.60188e-05
22 *1503:A *1426:B 0.00017688
23 *1503:A *1503:B 4.82919e-05
24 *1510:A *1510:B 8.8266e-05
25 *1648:A *1438:A 0
26 *1648:A *1504:B1 0
27 *1648:A *489:14 7.18738e-05
28 *1648:A *518:26 6.69305e-05
29 *483:14 *1371:A 0
30 *483:14 *527:84 0
31 *483:14 *527:97 0
32 *483:40 *1472:A 0.00013568
33 *483:80 *1506:B 0.000115464
34 *483:80 *527:97 0
35 *483:99 *1439:A 0.000123225
36 *483:99 *1439:B 2.49909e-05
37 *483:99 *1501:B 0.000180682
38 *483:99 *1506:B 9.50342e-06
39 *483:99 *491:21 0.00016881
40 *483:99 *527:97 0
41 *483:108 *1439:A 4.66108e-05
42 *483:108 *1509:B 3.74161e-05
43 *483:108 *489:23 2.05056e-05
44 *483:110 *1426:B 0.000180682
45 *1426:A *483:32 6.3712e-05
46 *1432:A *483:14 6.96579e-05
47 *1435:A1 *483:32 0.000293243
48 *1435:B1 *483:14 0.000163204
49 *1435:B2 *1151:A 0
50 *1452:A *1151:A 0
51 *1455:A1 *1151:A 5.28395e-05
52 *1464:B *483:14 0
53 *1465:B *483:14 0
54 *1473:C1 *1151:A 8.52883e-05
55 *1504:A2 *1503:A 2.75229e-05
56 *1508:A1 *483:32 2.75145e-05
57 *1508:A2 *483:32 8.65905e-05
58 *1511:A1 *1502:A 3.45252e-05
59 *1511:A1 *483:99 2.49909e-05
60 *1511:A1 *483:108 8.05167e-05
61 *1512:B *483:14 5.06645e-05
62 *1512:B *483:32 0.000260708
63 *1512:B *483:80 8.09021e-06
64 *1512:B *483:99 1.73877e-05
65 *1580:D *483:40 0.000106769
66 *1583:D *483:14 7.81946e-05
67 *1584:D *483:14 3.39151e-05
68 *1598:D *1648:A 0
69 *1600:D *483:32 9.66106e-05
70 *1601:CLK *1648:A 2.25079e-05
71 *1663:A *1648:A 4.18603e-06
72 *368:40 *1151:A 1.31227e-05
73 *381:22 *1151:A 9.96559e-05
74 *381:22 *1648:A 0.000147781
75 *381:22 *483:40 0.000472633
76 *424:147 *1648:A 2.4997e-05
*RES
1 *1583:Q *483:14 11.355 
2 *483:14 *483:16 2 
3 *483:16 *483:32 8.22277 
4 *483:32 *483:40 7.7375 
5 *483:40 *1151:A 10.625 
6 *483:40 *1472:C 1.6 
7 *483:32 *1648:A 10.5075 
8 *483:16 *1506:A 1.6 
9 *483:14 *483:80 1.635 
10 *483:80 *1502:A 4.77 
11 *483:80 *483:99 5.795 
12 *483:99 *1509:A 1.6 
13 *483:99 *483:108 3.83 
14 *483:108 *483:110 2.145 
15 *483:110 *1507:A 3.6 
16 *483:110 *1510:A 5.19 
17 *483:108 *1503:A 6.195 
*END

*D_NET *484 0.00924952
*CONN
*I *1426:B I *D sky130_fd_sc_hd__or2_2
*I *1649:A I *D sky130_fd_sc_hd__buf_1
*I *1427:B I *D sky130_fd_sc_hd__nand2_2
*I *1593:Q O *D sky130_fd_sc_hd__dfxtp_2
*CAP
1 *1426:B 0.00178898
2 *1649:A 0
3 *1427:B 0.000460256
4 *1593:Q 0
5 *484:10 0.000988255
6 *484:4 0.00231698
7 *1426:B *1376:A2 0.000227133
8 *1426:B *1502:B 0.00022282
9 *1426:B *1503:B 0.00011686
10 *1426:B *1504:B1 5.0751e-05
11 *1426:B *485:10 9.12132e-05
12 *1426:B *492:8 7.84106e-05
13 *1426:B *493:12 7.23602e-05
14 *1427:B *1497:A 0
15 *484:10 *1376:A2 5.36095e-05
16 *484:10 *1496:A 5.30673e-05
17 uo_out[2] *1427:B 6.28765e-05
18 *1426:A *1426:B 4.82863e-05
19 *1435:A2 *1427:B 4.58257e-05
20 *1503:A *1426:B 0.00017688
21 *1504:A2 *1426:B 0.000463617
22 *1508:A2 *1426:B 0.000114187
23 *1593:D *484:10 5.31171e-05
24 *1594:CLK *1426:B 0.000142998
25 *1594:CLK *484:10 0.000176503
26 *1594:D *1426:B 5.20335e-05
27 *1597:D *1426:B 1.34503e-05
28 *1602:CLK *1426:B 9.66106e-05
29 *1602:D *1426:B 0.000375995
30 *1647:A *1427:B 0.000369092
31 *424:81 *484:10 2.75229e-05
32 *424:88 *484:10 0.000119907
33 *433:10 *1427:B 0.000209233
34 *483:110 *1426:B 0.000180682
*RES
1 *1593:Q *484:4 1.6 
2 *484:4 *484:10 7.725 
3 *484:10 *1427:B 15.8 
4 *484:10 *1649:A 1.6 
5 *484:4 *1426:B 42.045 
*END

*D_NET *485 0.0045182
*CONN
*I *1438:B I *D sky130_fd_sc_hd__or4_2
*I *1650:A I *D sky130_fd_sc_hd__buf_1
*I *1594:Q O *D sky130_fd_sc_hd__dfxtp_2
*CAP
1 *1438:B 0.000459229
2 *1650:A 0.000787121
3 *1594:Q 0.000210297
4 *485:10 0.00145665
5 *1438:B *1438:C 1.91597e-05
6 *1438:B *1653:A 2.8585e-06
7 *1438:B *518:26 0.000184247
8 *1650:A *1440:B 1.17309e-05
9 *1650:A *1504:B1 0
10 *1650:A *1657:A 3.79555e-05
11 *485:10 *1504:B1 0
12 *1426:B *485:10 9.12132e-05
13 *1440:C *1650:A 1.4174e-05
14 *1440:D_N *1650:A 0.000403567
15 *1441:B *1650:A 0.000196376
16 *1599:D *1650:A 0.00022707
17 *1601:CLK *1438:B 4.82919e-05
18 *424:134 *1650:A 4.76263e-05
19 *424:206 *1650:A 0.000124383
20 *424:206 *485:10 5.76993e-05
21 *424:219 *485:10 0.000138551
*RES
1 *1594:Q *485:10 7.3575 
2 *485:10 *1650:A 17.2425 
3 *485:10 *1438:B 9.5625 
*END

*D_NET *486 0.00309737
*CONN
*I *1438:A I *D sky130_fd_sc_hd__or4_2
*I *1651:A I *D sky130_fd_sc_hd__buf_1
*I *1595:Q O *D sky130_fd_sc_hd__dfxtp_2
*CAP
1 *1438:A 0.000905918
2 *1651:A 2.78682e-05
3 *1595:Q 5.59841e-05
4 *486:6 0.00098977
5 *1438:A *1439:C 0
6 *1438:A *489:14 0
7 *1438:A *493:12 4.11281e-05
8 *1438:A *518:26 2.16104e-05
9 *1597:D *1438:A 0
10 *1647:A *1438:A 0.00087936
11 *1647:A *1651:A 3.26889e-05
12 *1647:A *486:6 6.61451e-05
13 *1648:A *1438:A 0
14 *1663:A *1438:A 7.6901e-05
*RES
1 *1595:Q *486:6 2.395 
2 *486:6 *1651:A 2.215 
3 *486:6 *1438:A 19.37 
*END

*D_NET *487 0.00105126
*CONN
*I *1652:A I *D sky130_fd_sc_hd__buf_1
*I *1440:A I *D sky130_fd_sc_hd__or4b_2
*I *1596:Q O *D sky130_fd_sc_hd__dfxtp_2
*CAP
1 *1652:A 0.000202097
2 *1440:A 3.59859e-05
3 *1596:Q 0.000238083
4 *1440:A *1498:A 0.000143266
5 *1652:A *1498:A 0
6 *1652:A *1499:A 3.67779e-05
7 *1426:A *1652:A 0.000198051
8 *1594:D *1440:A 8.08439e-05
9 *1595:D *1652:A 0.000116158
*RES
1 *1596:Q *1440:A 8.835 
2 *1596:Q *1652:A 10.41 
*END

*D_NET *488 0.00202401
*CONN
*I *1653:A I *D sky130_fd_sc_hd__buf_1
*I *1438:C I *D sky130_fd_sc_hd__or4_2
*I *1598:Q O *D sky130_fd_sc_hd__dfxtp_2
*CAP
1 *1653:A 0.000601814
2 *1438:C 4.84773e-05
3 *1598:Q 0.000650292
4 *1438:C *489:14 5.05521e-05
5 *1438:C *489:23 2.30292e-05
6 *1653:A *1500:A 7.11235e-06
7 *1653:A *489:14 1.16578e-05
8 *1653:A *518:26 0.000276122
9 *1426:A *1653:A 4.66202e-05
10 *1438:B *1438:C 1.91597e-05
11 *1438:B *1653:A 2.8585e-06
12 *1598:D *1653:A 0.000199714
13 *1601:CLK *1438:C 8.65961e-05
*RES
1 *1598:Q *1438:C 4.7 
2 *1598:Q *1653:A 11.165 
*END

*D_NET *489 0.00376066
*CONN
*I *1503:B I *D sky130_fd_sc_hd__nor2_2
*I *1502:B I *D sky130_fd_sc_hd__and2_2
*I *1438:D I *D sky130_fd_sc_hd__or4_2
*I *1599:Q O *D sky130_fd_sc_hd__dfxtp_2
*CAP
1 *1503:B 0.000172057
2 *1502:B 0.000110636
3 *1438:D 0
4 *1599:Q 0.000136026
5 *489:23 0.000844618
6 *489:14 0.00069795
7 *1502:B *1507:B 0.0001249
8 *1502:B *1510:B 0.000179931
9 *1502:B *492:8 1.52184e-05
10 *1503:B *492:8 5.92269e-05
11 *489:14 *518:26 8.53113e-06
12 *489:23 *1439:A 0.000232999
13 *489:23 *1439:B 2.81489e-05
14 *489:23 *1509:B 4.82919e-05
15 *1426:B *1502:B 0.00022282
16 *1426:B *1503:B 0.00011686
17 *1438:A *489:14 0
18 *1438:C *489:14 5.05521e-05
19 *1438:C *489:23 2.30292e-05
20 *1503:A *1503:B 4.82919e-05
21 *1504:A2 *1503:B 5.63519e-05
22 *1511:A2 *1502:B 2.0514e-05
23 *1512:B *1502:B 8.09021e-06
24 *1512:B *1503:B 0
25 *1601:CLK *489:14 9.47454e-05
26 *1601:CLK *489:23 0.000113282
27 *1601:D *489:23 0.000243554
28 *1648:A *489:14 7.18738e-05
29 *1653:A *489:14 1.16578e-05
30 *483:108 *489:23 2.05056e-05
*RES
1 *1599:Q *489:14 8.39 
2 *489:14 *1438:D 1.6 
3 *489:14 *489:23 11.765 
4 *489:23 *1502:B 7.395 
5 *489:23 *1503:B 7.17 
*END

*D_NET *490 0.00380415
*CONN
*I *1636:A I *D sky130_fd_sc_hd__dlygate4sd3_1
*I *1440:B I *D sky130_fd_sc_hd__or4b_2
*I *1600:Q O *D sky130_fd_sc_hd__dfxtp_2
*CAP
1 *1636:A 2.74953e-05
2 *1440:B 0.000414112
3 *1600:Q 0.000632512
4 *490:6 0.00107412
5 *1440:B *1490:A 0.000152244
6 *1636:A *1504:B1 2.5137e-05
7 *1636:A *1657:A 1.6783e-05
8 *1426:A *1440:B 0.000232584
9 *1426:A *490:6 0.000937963
10 *1440:C *1440:B 0.00010836
11 *1650:A *1440:B 1.17309e-05
12 *424:134 *1440:B 0.00010901
13 *424:206 *1440:B 6.20999e-05
*RES
1 *1600:Q *490:6 10.33 
2 *490:6 *1440:B 12.095 
3 *490:6 *1636:A 6.215 
*END

*D_NET *491 0.0024504
*CONN
*I *1507:B I *D sky130_fd_sc_hd__nor2_2
*I *1506:B I *D sky130_fd_sc_hd__and2_2
*I *1439:B I *D sky130_fd_sc_hd__or4_2
*I *1601:Q O *D sky130_fd_sc_hd__dfxtp_2
*CAP
1 *1507:B 0.000217156
2 *1506:B 5.6425e-05
3 *1439:B 0.000371266
4 *1601:Q 0
5 *491:21 0.000346848
6 *491:4 0.000444532
7 *1439:B *1439:A 2.39856e-05
8 *1439:B *1439:C 4.05358e-05
9 *1507:B *1510:B 6.52265e-05
10 *1502:A *1507:B 2.60188e-05
11 *1502:B *1507:B 0.0001249
12 *1508:A1 *1506:B 4.82919e-05
13 *1508:A2 *1506:B 3.00381e-05
14 *1511:A1 *1507:B 1.47347e-05
15 *1511:A1 *491:21 0.000112123
16 *1511:A2 *1507:B 7.67415e-06
17 *1512:B *1506:B 5.83373e-05
18 *1512:B *491:21 3.50033e-05
19 *1601:D *1439:B 8.03844e-05
20 *483:80 *1506:B 0.000115464
21 *483:99 *1439:B 2.49909e-05
22 *483:99 *1506:B 9.50342e-06
23 *483:99 *491:21 0.00016881
24 *489:23 *1439:B 2.81489e-05
*RES
1 *1601:Q *491:4 1.6 
2 *491:4 *1439:B 10.37 
3 *491:4 *491:21 4.145 
4 *491:21 *1506:B 5.43 
5 *491:21 *1507:B 7.29 
*END

*D_NET *492 0.00339212
*CONN
*I *1509:B I *D sky130_fd_sc_hd__and2_2
*I *1439:A I *D sky130_fd_sc_hd__or4_2
*I *1510:B I *D sky130_fd_sc_hd__nor2_2
*I *1602:Q O *D sky130_fd_sc_hd__dfxtp_2
*CAP
1 *1509:B 8.12594e-06
2 *1439:A 0.000282815
3 *1510:B 0.000182101
4 *1602:Q 0.000129896
5 *492:23 0.000290941
6 *492:8 0.000311997
7 *1439:A *1439:C 0
8 *1439:A *1501:B 0.000231338
9 *1439:A *527:97 4.82919e-05
10 *492:8 *1501:B 0
11 *1426:B *492:8 7.84106e-05
12 *1439:B *1439:A 2.39856e-05
13 *1440:C *1439:A 8.8266e-05
14 *1502:B *1510:B 0.000179931
15 *1502:B *492:8 1.52184e-05
16 *1503:B *492:8 5.92269e-05
17 *1504:A1 *1439:A 0.000126856
18 *1507:B *1510:B 6.52265e-05
19 *1510:A *1510:B 8.8266e-05
20 *1511:A2 *1510:B 0.000385327
21 *1512:B *1510:B 0.000178314
22 *1512:B *492:8 0.000129047
23 *483:99 *1439:A 0.000123225
24 *483:108 *1439:A 4.66108e-05
25 *483:108 *1509:B 3.74161e-05
26 *489:23 *1439:A 0.000232999
27 *489:23 *1509:B 4.82919e-05
*RES
1 *1602:Q *492:8 7.02 
2 *492:8 *1510:B 9.66 
3 *492:8 *492:23 2 
4 *492:23 *1439:A 13.145 
5 *492:23 *1509:B 2.05 
*END

*D_NET *493 0.00126218
*CONN
*I *1634:A I *D sky130_fd_sc_hd__dlygate4sd3_1
*I *1439:C I *D sky130_fd_sc_hd__or4_2
*I *1597:Q O *D sky130_fd_sc_hd__dfxtp_2
*CAP
1 *1634:A 8.12594e-06
2 *1439:C 0.000256421
3 *1597:Q 8.43115e-05
4 *493:12 0.000348859
5 *1426:B *493:12 7.23602e-05
6 *1438:A *1439:C 0
7 *1438:A *493:12 4.11281e-05
8 *1439:A *1439:C 0
9 *1439:B *1439:C 4.05358e-05
10 *1439:D *1439:C 0
11 *1504:A1 *1439:C 0
12 *1504:A1 *1634:A 3.74161e-05
13 *1504:A1 *493:12 0.000163199
14 *1504:A2 *1634:A 4.82919e-05
15 *1504:A2 *493:12 0.000161529
16 *1601:D *1439:C 0
*RES
1 *1597:Q *493:12 8.465 
2 *493:12 *1439:C 9.785 
3 *493:12 *1634:A 2.05 
*END

*D_NET *494 0.00512766
*CONN
*I *1454:C I *D sky130_fd_sc_hd__or3_2
*I *1152:A I *D sky130_fd_sc_hd__inv_2
*I *1654:A I *D sky130_fd_sc_hd__buf_1
*I *1584:Q O *D sky130_fd_sc_hd__dfxtp_2
*CAP
1 *1454:C 0.000460163
2 *1152:A 1.1356e-05
3 *1654:A 0.000234683
4 *1584:Q 0.000645137
5 *494:12 0.000381011
6 *494:8 0.00124027
7 *1454:C *1371:A 0
8 *1454:C *1454:A 0
9 *1454:C *1655:A 4.94404e-05
10 *1454:C *527:84 0
11 *1454:C *527:97 0
12 *1654:A *1475:A1 1.34361e-05
13 *1654:A *1475:A2 0.000172225
14 *494:12 *1371:A 0
15 *494:12 *1655:A 6.63141e-05
16 *1432:A *1654:A 0
17 *1435:B1 *1152:A 1.83847e-05
18 *1435:B1 *1454:C 0.000128763
19 *1435:B1 *1654:A 1.33293e-05
20 *1435:B1 *494:12 0.000180706
21 *1439:D *1454:C 0.000124895
22 *1440:C *1454:C 7.25441e-05
23 *1452:A *1654:A 1.84044e-05
24 *1465:B *494:8 4.66826e-05
25 *1476:A3 *1654:A 2.49909e-05
26 *1480:A2 *1654:A 4.82863e-05
27 *1481:A1 *1152:A 2.30292e-05
28 *1481:A1 *1654:A 0.000163204
29 *1583:CLK *494:12 0
30 *1584:CLK *494:8 8.69182e-05
31 *1584:D *494:8 0.000239069
32 *379:10 *1654:A 0.000157602
33 *379:10 *494:12 0
34 *379:12 *1654:A 4.9968e-05
35 *379:14 *1654:A 0.000108257
36 *379:24 *1654:A 2.98807e-05
37 *381:22 *1454:C 0.000159741
38 *424:169 *494:8 0.000158965
*RES
1 *1584:Q *494:8 11.64 
2 *494:8 *494:12 4.91 
3 *494:12 *1654:A 11.825 
4 *494:12 *1152:A 2.05 
5 *494:8 *1454:C 12.03 
*END

*D_NET *495 0.00485273
*CONN
*I *1655:A I *D sky130_fd_sc_hd__buf_1
*I *1454:B I *D sky130_fd_sc_hd__or3_2
*I *1472:B I *D sky130_fd_sc_hd__or3_2
*I *1585:Q O *D sky130_fd_sc_hd__dfxtp_2
*CAP
1 *1655:A 0.000529564
2 *1454:B 0.000368886
3 *1472:B 0.000212809
4 *1585:Q 0.000113283
5 *495:8 0.000833814
6 *495:6 0.000894967
7 *1454:B *1454:A 0.000343292
8 *1472:B *1472:A 0.00011964
9 *1655:A *1464:A 8.08498e-05
10 *1655:A *1488:A 0.00014205
11 *1655:A *1488:B 0.000238919
12 *1655:A *527:55 1.03423e-05
13 *1655:A *527:64 0.000134314
14 *1435:B1 *1454:B 0
15 *1439:D *1454:B 0
16 *1454:C *1655:A 4.94404e-05
17 *1466:S *1655:A 4.82919e-05
18 *1473:B1 *1454:B 0
19 *1580:D *1454:B 0
20 *1583:CLK *1655:A 5.55344e-05
21 *1584:CLK *495:6 3.45679e-05
22 *1585:D *1454:B 0
23 *1585:D *1655:A 0.0001249
24 *1585:D *495:8 5.50579e-05
25 *1601:CLK *1454:B 4.31921e-05
26 *424:147 *1454:B 5.13511e-05
27 *424:160 *1454:B 0.000187179
28 *424:169 *1472:B 2.85869e-05
29 *424:169 *495:6 2.20732e-05
30 *424:169 *495:8 6.35069e-05
31 *494:12 *1655:A 6.63141e-05
*RES
1 *1585:Q *495:6 3.085 
2 *495:6 *495:8 3.21 
3 *495:8 *1472:B 5.29 
4 *495:8 *1454:B 13.1 
5 *495:6 *1655:A 16.85 
*END

*D_NET *496 0.00201617
*CONN
*I *1656:A I *D sky130_fd_sc_hd__buf_1
*I *1454:A I *D sky130_fd_sc_hd__or3_2
*I *1472:A I *D sky130_fd_sc_hd__or3_2
*I *1586:Q O *D sky130_fd_sc_hd__dfxtp_2
*CAP
1 *1656:A 3.08966e-05
2 *1454:A 0.00021186
3 *1472:A 0.000205063
4 *1586:Q 0
5 *496:21 0.000270625
6 *496:4 0.000232931
7 *1435:B1 *1454:A 0
8 *1435:B1 *1472:A 0.000130465
9 *1435:B1 *1656:A 8.65961e-05
10 *1435:B1 *496:21 3.26889e-05
11 *1439:D *1454:A 4.18603e-06
12 *1454:B *1454:A 0.000343292
13 *1454:C *1454:A 0
14 *1472:B *1472:A 0.00011964
15 *381:22 *1472:A 9.53894e-05
16 *424:160 *1472:A 0.000116853
17 *483:40 *1472:A 0.00013568
*RES
1 *1586:Q *496:4 1.6 
2 *496:4 *1472:A 10.295 
3 *496:4 *496:21 0.615 
4 *496:21 *1454:A 9.785 
5 *496:21 *1656:A 2.395 
*END

*D_NET *497 0.00930382
*CONN
*I *1657:A I *D sky130_fd_sc_hd__buf_1
*I *1432:B I *D sky130_fd_sc_hd__nand2_2
*I *1433:B I *D sky130_fd_sc_hd__or2_2
*I *1587:Q O *D sky130_fd_sc_hd__dfxtp_2
*CAP
1 *1657:A 0.000442549
2 *1432:B 0.00116052
3 *1433:B 0.00132449
4 *1587:Q 0
5 *497:16 0.00289659
6 *497:6 0.000854136
7 *1432:B *1668:addr[5] 0.00157639
8 *1433:B *1353:B 1.88602e-05
9 *1433:B *565:47 9.76789e-05
10 *1657:A *1490:A 1.7635e-05
11 *1657:A *1504:B1 0
12 *497:16 *527:49 0
13 *1179:B *1433:B 1.03833e-05
14 *1426:A *1657:A 1.83975e-05
15 *1432:A *1432:B 4.82863e-05
16 *1435:B1 *1432:B 1.56428e-05
17 *1435:B2 *1657:A 0
18 *1435:B2 *497:16 0
19 *1440:C *1657:A 4.66108e-05
20 *1465:B *1432:B 4.01548e-05
21 *1467:A2 *1432:B 0
22 *1512:B *497:16 1.40542e-05
23 *1580:D *1657:A 5.018e-05
24 *1583:D *1432:B 0
25 *1586:D *1657:A 4.45596e-05
26 *1599:D *1657:A 4.77757e-05
27 *1636:A *1657:A 1.6783e-05
28 *1650:A *1657:A 3.79555e-05
29 *378:65 *1432:B 0.000333175
30 *381:22 *497:16 3.82728e-05
31 *424:134 *1657:A 0.000152751
*RES
1 *1587:Q *497:6 3.6 
2 *497:6 *497:16 2.76043 
3 *497:16 *1433:B 6.7515 
4 *497:16 *1432:B 8.16837 
5 *497:6 *1657:A 10.1793 
*END

*D_NET *498 0.00202517
*CONN
*I *1658:A I *D sky130_fd_sc_hd__buf_1
*I *1434:B I *D sky130_fd_sc_hd__xor2_2
*I *1588:Q O *D sky130_fd_sc_hd__dfxtp_2
*CAP
1 *1658:A 9.07584e-05
2 *1434:B 0.000331644
3 *1588:Q 0.000146379
4 *498:6 0.000568782
5 *1434:B *1379:A2 8.73103e-05
6 *1434:B *1622:A 7.18805e-05
7 *1658:A *528:99 7.39496e-05
8 *1658:A *582:81 0.000223026
9 *1435:C1 *1434:B 0.000134229
10 *1436:C1 *1434:B 4.2854e-05
11 *1437:B *1434:B 6.27029e-05
12 *1441:B *1658:A 0
13 *424:123 *1434:B 0.000119105
14 *424:123 *498:6 7.25532e-05
*RES
1 *1588:Q *498:6 3.43 
2 *498:6 *1434:B 9.9325 
3 *498:6 *1658:A 8.255 
*END

*D_NET *499 0.000642737
*CONN
*I *1430:B I *D sky130_fd_sc_hd__xor2_2
*I *1659:A I *D sky130_fd_sc_hd__buf_1
*I *1589:Q O *D sky130_fd_sc_hd__dfxtp_2
*CAP
1 *1430:B 7.70089e-05
2 *1659:A 0.000125315
3 *1589:Q 0
4 *499:6 0.000202324
5 *1434:A *1430:B 0
6 *1434:A *1659:A 0
7 *307:52 *1659:A 0
8 *424:49 *1430:B 0.000135801
9 *424:49 *1659:A 0.000102289
*RES
1 *1589:Q *499:6 3.6 
2 *499:6 *1659:A 5.715 
3 *499:6 *1430:B 3.635 
*END

*D_NET *500 0.00235257
*CONN
*I *1431:B I *D sky130_fd_sc_hd__xor2_2
*I *1660:A I *D sky130_fd_sc_hd__buf_1
*I *1590:Q O *D sky130_fd_sc_hd__dfxtp_2
*CAP
1 *1431:B 0.000136958
2 *1660:A 0.000427582
3 *1590:Q 6.10218e-05
4 *500:8 0.000625562
5 *1431:B *1366:A 1.88656e-05
6 *1431:B *585:145 0.000113372
7 *1660:A *1363:B1 6.72196e-05
8 *1660:A *1493:A 1.26737e-05
9 *1213:D *1660:A 7.96104e-06
10 *1430:A *1660:A 6.06988e-05
11 *1431:A *1660:A 0
12 *1525:CLK *1431:B 4.97008e-05
13 *1525:CLK *1660:A 0.000286211
14 *1567:CLK *1660:A 0.000106332
15 *1567:D *1660:A 3.51254e-06
16 *1577:D *500:8 8.41307e-05
17 *1589:D *1431:B 0.000202894
18 *1589:D *1660:A 8.78735e-05
*RES
1 *1590:Q *500:8 4.395 
2 *500:8 *1660:A 11.7 
3 *500:8 *1431:B 5.21 
*END

*D_NET *501 0.0140866
*CONN
*I *1661:A I *D sky130_fd_sc_hd__buf_1
*I *1428:B I *D sky130_fd_sc_hd__or2_2
*I *1429:B I *D sky130_fd_sc_hd__nand2_2
*I *1591:Q O *D sky130_fd_sc_hd__dfxtp_2
*CAP
1 *1661:A 0.000197023
2 *1428:B 0.0018764
3 *1429:B 0.00184167
4 *1591:Q 0.00015139
5 *501:35 0.00233254
6 *501:8 0.00225218
7 *1428:B *1366:A 0.000128687
8 *1428:B *568:33 0
9 *1428:B *572:50 0.000279536
10 *1428:B *573:82 4.11745e-05
11 *1428:B *585:145 4.48373e-06
12 *1429:B *1203:A 7.87426e-05
13 *1429:B *1376:A2 0.000342789
14 *1429:B *1529:D 0.000579203
15 *1429:B *1604:A 8.59365e-05
16 *1429:B *593:8 0.00011653
17 *501:8 *528:42 7.47457e-05
18 *501:35 *528:42 2.53191e-06
19 *1202:A *1429:B 2.09975e-05
20 *1265:A *1429:B 0
21 *1266:C *1429:B 0
22 *1367:A2 *1661:A 6.97202e-05
23 *1427:A *1429:B 4.52957e-05
24 *1428:A *1428:B 0.00100119
25 *1429:A *1429:B 0
26 *1436:A1 *1429:B 0
27 *1436:A1 *501:35 0
28 *1436:B1 *1428:B 3.77257e-05
29 *1436:B1 *501:35 0.000319879
30 *1436:B2 *1429:B 9.3062e-06
31 *1436:B2 *501:35 0.000148039
32 *1512:B *1428:B 9.87777e-06
33 *1529:CLK *1429:B 4.99619e-05
34 *1571:D *1661:A 0.000120655
35 *1575:D *1428:B 0.000384002
36 *1576:D *1429:B 0
37 *1577:D *1661:A 9.74132e-05
38 *1578:D *1429:B 0.000125139
39 *1579:D *1429:B 8.77684e-05
40 *1580:D *1429:B 4.76756e-05
41 *1580:D *501:35 0.000117444
42 *1590:D *1428:B 4.43871e-06
43 *1590:D *1661:A 1.54049e-05
44 *1590:D *501:35 0.00015482
45 *156:12 *1428:B 1.69186e-05
46 *433:25 *1429:B 6.92933e-05
47 *433:27 *1429:B 0.000283588
48 *433:29 *1429:B 2.79956e-05
49 *433:42 *1429:B 8.77131e-05
50 *434:74 *1429:B 3.25997e-05
51 *450:6 *1429:B 8.65961e-05
52 *450:8 *1429:B 0.000229536
*RES
1 *1591:Q *501:8 5.43 
2 *501:8 *1429:B 36.265 
3 *501:8 *501:35 6.93 
4 *501:35 *1428:B 11.1459 
5 *501:35 *1661:A 7.995 
*END

*D_NET *502 0.0074179
*CONN
*I *1662:A I *D sky130_fd_sc_hd__buf_1
*I *1424:B I *D sky130_fd_sc_hd__or2_2
*I *1425:B I *D sky130_fd_sc_hd__nand2_2
*I *1592:Q O *D sky130_fd_sc_hd__dfxtp_2
*CAP
1 *1662:A 1.97409e-05
2 *1424:B 0.000959649
3 *1425:B 0.000178337
4 *1592:Q 0.001276
5 *502:30 0.00154975
6 *502:26 0.0017075
7 *1424:B *1424:A 4.56435e-05
8 *1662:A *1494:A 4.00541e-06
9 *502:26 *1375:A 8.63479e-05
10 *502:26 *1376:A2 4.60584e-05
11 *502:26 *1495:A 5.83121e-06
12 *502:26 *518:40 2.23407e-05
13 *502:30 *1376:A2 0.00013106
14 uo_out[3] *1424:B 1.0124e-05
15 *1202:A *1424:B 9.84247e-05
16 *1259:B *1425:B 0
17 *1260:C *1425:B 0
18 *1375:C *502:26 2.39856e-05
19 *1376:C1 *502:26 0.000373375
20 *1377:A *502:26 0
21 *1377:B *1425:B 0
22 *1426:A *502:26 0.00013068
23 *1436:A1 *1424:B 0.000111392
24 *1575:CLK *1424:B 2.49909e-05
25 *1575:D *1424:B 6.85082e-05
26 *1580:D *502:26 6.43269e-05
27 *1592:CLK *502:26 8.89491e-05
28 *1592:D *502:26 3.10498e-05
29 *1596:CLK *502:26 8.67476e-05
30 *433:79 *1424:B 0
31 *437:6 *502:30 3.29648e-05
32 *438:14 *1425:B 2.8531e-05
33 *460:10 *502:26 0.000116165
34 *460:132 *502:26 9.54144e-05
*RES
1 *1592:Q *502:26 25.565 
2 *502:26 *502:30 8.315 
3 *502:30 *1425:B 6.3 
4 *502:30 *1424:B 16.935 
5 *502:26 *1662:A 1.96 
*END

*D_NET *503 0.00165436
*CONN
*I *1501:A I *D sky130_fd_sc_hd__and2_2
*I *1648:X O *D sky130_fd_sc_hd__buf_1
*CAP
1 *1501:A 0.000400505
2 *1648:X 0.000400505
3 *1501:A *1512:A 1.83847e-05
4 *1501:A *518:26 0.000275553
5 *1504:A1 *1501:A 0.000551735
6 *1504:A2 *1501:A 7.67415e-06
*RES
1 *1648:X *1501:A 11.645 
*END

*D_NET *504 0.00147063
*CONN
*I *1496:A I *D sky130_fd_sc_hd__and2_2
*I *1649:X O *D sky130_fd_sc_hd__buf_1
*CAP
1 *1496:A 0.000444014
2 *1649:X 0.000444014
3 *1496:A *1376:A2 0.000317373
4 uo_out[0] *1496:A 6.03407e-05
5 *1437:A *1496:A 0
6 *1437:B *1496:A 0
7 *1525:CLK *1496:A 0.000151821
8 *1592:D *1496:A 0
9 *484:10 *1496:A 5.30673e-05
*RES
1 *1649:X *1496:A 14.52 
*END

*D_NET *505 0.00101134
*CONN
*I *1497:A I *D sky130_fd_sc_hd__and2_2
*I *1650:X O *D sky130_fd_sc_hd__buf_1
*CAP
1 *1497:A 0.000291232
2 *1650:X 0.000291232
3 *1497:A *1497:B 0
4 *1497:A *1622:A 0.000147937
5 *1497:A *528:74 4.99619e-05
6 uo_out[2] *1497:A 0
7 *1427:B *1497:A 0
8 *1593:D *1497:A 6.35535e-05
9 *1665:A *1497:A 9.99604e-05
10 *424:51 *1497:A 2.53191e-06
11 *424:81 *1497:A 6.4929e-05
*RES
1 *1650:X *1497:A 13.365 
*END

*D_NET *506 0.00217445
*CONN
*I *1498:A I *D sky130_fd_sc_hd__and2_2
*I *1651:X O *D sky130_fd_sc_hd__buf_1
*CAP
1 *1498:A 0.000632593
2 *1651:X 0.000632593
3 *1498:A *1499:A 0.00026155
4 *1498:A *1505:B 3.13447e-05
5 *1498:A *527:19 0.000159563
6 *1440:A *1498:A 0.000143266
7 *1441:B *1498:A 0
8 *1587:D *1498:A 3.18219e-05
9 *1594:D *1498:A 0.00012602
10 *1595:D *1498:A 0
11 *1647:A *1498:A 0.000155697
12 *1652:A *1498:A 0
13 *424:219 *1498:A 0
*RES
1 *1651:X *1498:A 20.865 
*END

*D_NET *507 0.00143665
*CONN
*I *1499:A I *D sky130_fd_sc_hd__and2_2
*I *1652:X O *D sky130_fd_sc_hd__buf_1
*CAP
1 *1499:A 0.000276935
2 *1652:X 0.000276935
3 *1499:A *1499:B 4.82919e-05
4 *1435:A1 *1499:A 0.000274659
5 *1435:B2 *1499:A 0.000130445
6 *1441:B *1499:A 0
7 *1498:A *1499:A 0.00026155
8 *1595:D *1499:A 0.000131058
9 *1652:A *1499:A 3.67779e-05
*RES
1 *1652:X *1499:A 15.435 
*END

*D_NET *508 0.00130057
*CONN
*I *1500:A I *D sky130_fd_sc_hd__and2_2
*I *1653:X O *D sky130_fd_sc_hd__buf_1
*CAP
1 *1500:A 0.000464985
2 *1653:X 0.000464985
3 *1500:A *518:26 6.69608e-06
4 *1500:A *528:93 2.23407e-05
5 *1500:A *528:95 5.53249e-06
6 *1500:A *582:81 7.55391e-05
7 *1426:A *1500:A 0.000189176
8 *1595:D *1500:A 0
9 *1596:D *1500:A 6.42013e-05
10 *1653:A *1500:A 7.11235e-06
*RES
1 *1653:X *1500:A 14.58 
*END

*D_NET *509 0.00196852
*CONN
*I *1371:A I *D sky130_fd_sc_hd__and2_2
*I *1654:X O *D sky130_fd_sc_hd__buf_1
*CAP
1 *1371:A 0.000648895
2 *1654:X 0.000648895
3 *1371:A *1475:B1 0.000177547
4 *1371:A *1484:A1 0
5 *1371:A *1609:A 4.66108e-05
6 *1432:A *1371:A 0
7 *1454:C *1371:A 0
8 *1460:A2 *1371:A 8.73389e-06
9 *1470:A1 *1371:A 0.000223019
10 *1480:A2 *1371:A 0.00014522
11 *1583:CLK *1371:A 6.96011e-05
12 *1583:D *1371:A 0
13 *483:14 *1371:A 0
14 *494:12 *1371:A 0
*RES
1 *1654:X *1371:A 18.945 
*END

*D_NET *510 0.000942713
*CONN
*I *1488:A I *D sky130_fd_sc_hd__and2_2
*I *1655:X O *D sky130_fd_sc_hd__buf_1
*CAP
1 *1488:A 0.00031625
2 *1655:X 0.00031625
3 *1488:A *1464:A 8.65905e-05
4 *1488:A *1488:B 4.92062e-05
5 *1466:S *1488:A 3.23663e-05
6 *1655:A *1488:A 0.00014205
*RES
1 *1655:X *1488:A 8.84 
*END

*D_NET *511 0.000304327
*CONN
*I *1489:A I *D sky130_fd_sc_hd__and2_2
*I *1656:X O *D sky130_fd_sc_hd__buf_1
*CAP
1 *1489:A 4.74233e-05
2 *1656:X 4.74233e-05
3 *1489:A *1489:B 4.87465e-06
4 *1489:A *527:55 0.000135845
5 *1435:B1 *1489:A 4.82863e-05
6 *1585:D *1489:A 2.04748e-05
*RES
1 *1656:X *1489:A 4.7 
*END

*D_NET *512 0.000454395
*CONN
*I *1490:A I *D sky130_fd_sc_hd__and2_2
*I *1657:X O *D sky130_fd_sc_hd__buf_1
*CAP
1 *1490:A 8.75015e-05
2 *1657:X 8.75015e-05
3 *1490:A *1490:B 9.09788e-06
4 *1426:A *1490:A 7.87761e-05
5 *1435:B2 *1490:A 4.18603e-06
6 *1440:B *1490:A 0.000152244
7 *1594:D *1490:A 0
8 *1657:A *1490:A 1.7635e-05
9 *424:134 *1490:A 1.74532e-05
*RES
1 *1657:X *1490:A 9.6 
*END

*D_NET *513 0.000130006
*CONN
*I *1491:A I *D sky130_fd_sc_hd__and2_2
*I *1658:X O *D sky130_fd_sc_hd__buf_1
*CAP
1 *1491:A 2.676e-05
2 *1658:X 2.676e-05
3 *1491:A *1492:B 2.11084e-05
4 *1491:A *1614:A 5.4155e-06
5 *1491:A *1668:addr[5] 4.99619e-05
*RES
1 *1658:X *1491:A 4.01 
*END

*D_NET *514 0.000423958
*CONN
*I *1492:A I *D sky130_fd_sc_hd__and2_2
*I *1659:X O *D sky130_fd_sc_hd__buf_1
*CAP
1 *1492:A 0.00013365
2 *1659:X 0.00013365
3 *1492:A *582:81 0
4 *1577:D *1492:A 9.37731e-05
5 *1579:D *1492:A 6.28843e-05
*RES
1 *1659:X *1492:A 9.375 
*END

*D_NET *515 0.00316041
*CONN
*I *1493:A I *D sky130_fd_sc_hd__and2_2
*I *1660:X O *D sky130_fd_sc_hd__buf_1
*CAP
1 *1493:A 0.000724482
2 *1660:X 0.000724482
3 *1493:A *1379:A2 0.000120655
4 *1493:A *1493:B 8.65961e-05
5 *1213:D *1493:A 0.000165016
6 *1430:A *1493:A 0.00057741
7 *1434:A *1493:A 0
8 *1436:C1 *1493:A 3.518e-05
9 *1437:A *1493:A 7.72054e-05
10 *1567:CLK *1493:A 4.82919e-05
11 *1567:D *1493:A 0.000160874
12 *1579:D *1493:A 0.00028238
13 *1589:D *1493:A 8.22858e-05
14 *1660:A *1493:A 1.26737e-05
15 *424:12 *1493:A 6.28765e-05
*RES
1 *1660:X *1493:A 22.71 
*END

*D_NET *516 0.00201891
*CONN
*I *1494:A I *D sky130_fd_sc_hd__and2_2
*I *1661:X O *D sky130_fd_sc_hd__buf_1
*CAP
1 *1494:A 0.000473007
2 *1661:X 0.000473007
3 *1494:A *1376:A2 8.03466e-05
4 *1494:A *1495:A 0.000193801
5 *1494:A *534:33 6.95702e-05
6 *1367:A2 *1494:A 9.57555e-05
7 *1436:A1 *1494:A 0.000223492
8 *1512:B *1494:A 3.72952e-05
9 *1579:D *1494:A 0
10 *1591:CLK *1494:A 0.000161035
11 *1591:D *1494:A 9.37898e-05
12 *1662:A *1494:A 4.00541e-06
13 *300:22 *1494:A 0.00011381
*RES
1 *1661:X *1494:A 17.805 
*END

*D_NET *517 0.0014668
*CONN
*I *1495:A I *D sky130_fd_sc_hd__and2_2
*I *1662:X O *D sky130_fd_sc_hd__buf_1
*CAP
1 *1495:A 0.000403479
2 *1662:X 0.000403479
3 *1495:A *1376:A2 7.67415e-06
4 *1495:A *1495:B 0.000110183
5 *1375:C *1495:A 8.89085e-05
6 *1436:A1 *1495:A 0
7 *1494:A *1495:A 0.000193801
8 *1579:D *1495:A 0.000253443
9 *1591:D *1495:A 0
10 *502:26 *1495:A 5.83121e-06
*RES
1 *1662:X *1495:A 14.835 
*END

*D_NET *518 0.0163562
*CONN
*I *1622:A I *D sky130_fd_sc_hd__clkdlybuf4s25_1
*I *1375:A I *D sky130_fd_sc_hd__and3_2
*I *1373:A1 I *D sky130_fd_sc_hd__a211o_2
*I *1378:C1 I *D sky130_fd_sc_hd__o211a_2
*I *1370:B1 I *D sky130_fd_sc_hd__o21a_2
*I *1663:X O *D sky130_fd_sc_hd__clkdlybuf4s25_1
*CAP
1 *1622:A 0.000579396
2 *1375:A 7.06914e-05
3 *1373:A1 0.000180947
4 *1378:C1 0
5 *1370:B1 0.00112153
6 *1663:X 0.00153135
7 *518:44 0.00116754
8 *518:40 0.000577372
9 *518:30 0.00149699
10 *518:26 0.00318662
11 *1370:B1 *1153:A 7.29911e-05
12 *1370:B1 *1379:A2 4.45799e-05
13 *1622:A *582:81 0
14 *518:40 *1379:A2 0.000212307
15 *518:40 *1495:B 0.000209103
16 *518:40 *528:18 0.000113373
17 *518:44 *1379:A2 2.49909e-05
18 uo_out[0] *518:30 0.00056863
19 *1252:A1 *1370:B1 0.000158072
20 *1254:B *1370:B1 0
21 *1370:A1 *1370:B1 4.92971e-05
22 *1373:B1 *1373:A1 3.09774e-05
23 *1374:A2 *1373:A1 2.06046e-05
24 *1375:C *1375:A 8.49205e-05
25 *1375:C *518:40 0.000118446
26 *1377:A *518:40 0
27 *1377:B *1373:A1 0.000135896
28 *1378:A1 *518:40 8.24678e-05
29 *1378:A2 *1373:A1 1.82789e-05
30 *1378:B1 *1373:A1 2.95708e-05
31 *1379:B1 *518:40 0.000158066
32 *1423:A1 *1370:B1 8.65905e-05
33 *1429:A *1370:B1 7.02659e-05
34 *1434:B *1622:A 7.18805e-05
35 *1435:A2 *1622:A 0
36 *1435:C1 *1622:A 6.16564e-05
37 *1436:B2 *518:30 0.000119592
38 *1438:A *518:26 2.16104e-05
39 *1438:B *518:26 0.000184247
40 *1497:A *1622:A 0.000147937
41 *1500:A *518:26 6.69608e-06
42 *1501:A *518:26 0.000275553
43 *1530:CLK *1370:B1 0
44 *1531:D *1370:B1 9.44681e-05
45 *1532:CLK *1370:B1 4.66108e-05
46 *1532:D *1370:B1 1.43717e-05
47 *1575:D *1622:A 0.000281707
48 *1576:D *1622:A 0.000356897
49 *1579:D *1622:A 1.07797e-05
50 *1580:D *518:26 0
51 *1580:D *518:30 0
52 *1594:D *518:26 1.00941e-05
53 *1598:D *518:26 0.000201395
54 *1601:CLK *518:26 0
55 *1605:A *1370:B1 6.50498e-05
56 *1648:A *518:26 6.69305e-05
57 *1653:A *518:26 0.000276122
58 *1664:A *518:26 0
59 *1665:A *1622:A 2.46007e-05
60 *1665:A *518:26 4.32417e-05
61 *98:28 *1622:A 2.93569e-05
62 *173:33 *1373:A1 2.75145e-05
63 *173:43 *1373:A1 7.23602e-05
64 *173:43 *518:40 2.84177e-05
65 *213:8 *1370:B1 0
66 *285:10 *1622:A 0
67 *297:45 *1373:A1 2.28017e-05
68 *307:22 *1622:A 0.000174718
69 *424:49 *1622:A 9.98667e-05
70 *424:51 *1622:A 0.000301479
71 *438:14 *1370:B1 1.77665e-05
72 *439:8 *1370:B1 1.56428e-05
73 *440:16 *1370:B1 0
74 *440:42 *1370:B1 0
75 *460:10 *518:40 0.000456826
76 *461:14 *518:40 0.000162311
77 *461:18 *518:40 0.000160635
78 *462:27 *1370:B1 8.59365e-05
79 *489:14 *518:26 8.53113e-06
80 *502:26 *1375:A 8.63479e-05
81 *502:26 *518:40 2.23407e-05
*RES
1 *1663:X *518:26 21.3454 
2 *518:26 *518:30 2.8104 
3 *518:30 *518:40 13.415 
4 *518:40 *518:44 0.81 
5 *518:44 *1370:B1 24.065 
6 *518:44 *1378:C1 1.6 
7 *518:40 *1373:A1 9.44 
8 *518:30 *1375:A 5.085 
9 *518:26 *1622:A 18.8675 
*END

*D_NET *519 0.0057402
*CONN
*I *1465:A I *D sky130_fd_sc_hd__nand2_2
*I *1457:B I *D sky130_fd_sc_hd__nor2_2
*I *1477:A0 I *D sky130_fd_sc_hd__mux2_1
*I *1628:A I *D sky130_fd_sc_hd__clkdlybuf4s25_1
*I *1606:X O *D sky130_fd_sc_hd__clkdlybuf4s25_1
*CAP
1 *1465:A 0.000337076
2 *1457:B 0.0002341
3 *1477:A0 0.00021434
4 *1628:A 0.000125967
5 *1606:X 4.24376e-05
6 *519:12 0.000826201
7 *519:8 0.000865984
8 *519:6 0.000525505
9 *1457:B *1458:A1 0
10 *1457:B *1463:A 0
11 *1457:B *1483:A1 5.23362e-05
12 *1457:B *1611:A 0.0001106
13 *1457:B *1613:A 8.6076e-05
14 *1457:B *1627:A 1.07797e-05
15 *1457:B *523:36 0.000186092
16 *1457:B *526:8 8.77516e-05
17 *1457:B *526:31 0
18 *1465:A *1463:A 0.000496728
19 *1465:A *1627:A 0.00013977
20 *1477:A0 *1608:A 7.06865e-05
21 *1477:A0 *564:36 3.23391e-05
22 *1628:A *1608:A 5.23362e-05
23 *1628:A *1612:A 0.000145907
24 *1628:A *1613:A 1.88602e-05
25 *1628:A *563:12 0
26 *1628:A *564:36 3.57846e-05
27 *519:12 *1483:A1 0.000128545
28 *519:12 *1608:A 2.49909e-05
29 *519:12 *525:12 5.74656e-05
30 *1466:A1 *1465:A 3.64998e-06
31 *1466:S *1465:A 0.000538165
32 *1470:A2 *1477:A0 3.82323e-06
33 *1477:A1 *1477:A0 0.000193324
34 *1482:B *1465:A 5.16418e-05
35 *384:19 *1457:B 4.09351e-05
*RES
1 *1606:X *519:6 2.05 
2 *519:6 *519:8 1.485 
3 *519:8 *519:12 7.625 
4 *519:12 *1628:A 6.255 
5 *519:12 *1477:A0 7.17 
6 *519:8 *1457:B 11.345 
7 *519:6 *1465:A 15.845 
*END

*D_NET *520 0.000828822
*CONN
*I *1466:A0 I *D sky130_fd_sc_hd__mux2_1
*I *1469:A1 I *D sky130_fd_sc_hd__a311o_2
*I *1607:X O *D sky130_fd_sc_hd__clkdlybuf4s25_1
*CAP
1 *1466:A0 7.67109e-05
2 *1469:A1 8.30232e-05
3 *1607:X 4.88839e-05
4 *520:6 0.000208618
5 *1466:A0 *523:48 8.23457e-05
6 *1469:A1 *1611:A 0.000109309
7 *520:6 *523:48 8.23457e-05
8 *1465:B *1469:A1 8.76619e-05
9 *1467:A2 *1469:A1 3.09164e-05
10 *369:10 *1469:A1 9.50342e-06
11 *384:30 *1469:A1 9.50342e-06
*RES
1 *1607:X *520:6 2.395 
2 *520:6 *1469:A1 7.79 
3 *520:6 *1466:A0 2.74 
*END

*D_NET *521 0.0033954
*CONN
*I *1475:A1 I *D sky130_fd_sc_hd__a21oi_2
*I *1474:A1 I *D sky130_fd_sc_hd__o21ba_2
*I *1443:A I *D sky130_fd_sc_hd__and4_2
*I *1456:A I *D sky130_fd_sc_hd__or3b_2
*I *1608:X O *D sky130_fd_sc_hd__clkdlybuf4s25_1
*CAP
1 *1475:A1 0.000260287
2 *1474:A1 1.17375e-05
3 *1443:A 9.25352e-05
4 *1456:A 0.00021322
5 *1608:X 0.000251082
6 *521:30 0.000355072
7 *521:10 0.000470798
8 *521:8 0.000499173
9 *1443:A *1443:C 8.49205e-05
10 *1443:A *562:10 6.52265e-05
11 *1456:A *1456:B 0.000183048
12 *1456:A *1459:A1 0
13 *1456:A *1626:A 2.53191e-06
14 *1456:A *1627:A 1.54712e-05
15 *1475:A1 *1475:A2 0.000314943
16 *521:8 *1608:A 0.000161829
17 *521:8 *525:12 8.88523e-06
18 *521:10 *1456:B 8.73147e-06
19 *521:10 *1626:A 7.14892e-06
20 *521:10 *525:14 5.4857e-05
21 *521:10 *525:36 6.36656e-05
22 *521:30 *1475:A2 4.43871e-06
23 *521:30 *525:36 7.00066e-05
24 *1175:B *1456:A 0
25 *1432:A *1475:A1 0
26 *1460:A2 *1456:A 0
27 *1460:A2 *521:10 0
28 *1460:A2 *521:30 0
29 *1476:A3 *1475:A1 0
30 *1478:S *1474:A1 2.75229e-05
31 *1479:A *1475:A1 3.98637e-05
32 *1479:B *1474:A1 4.82919e-05
33 *1479:B *1475:A1 0
34 *1485:A2 *1475:A1 4.82919e-05
35 *1654:A *1475:A1 1.34361e-05
36 *379:55 *1475:A1 1.83847e-05
*RES
1 *1608:X *521:8 6.81 
2 *521:8 *521:10 2.91 
3 *521:10 *1456:A 7.785 
4 *521:10 *1443:A 5.43 
5 *521:8 *521:30 1.635 
6 *521:30 *1474:A1 4.05 
7 *521:30 *1475:A1 8.79 
*END

*D_NET *522 0.00118127
*CONN
*I *1484:A1 I *D sky130_fd_sc_hd__o21ai_2
*I *1477:S I *D sky130_fd_sc_hd__mux2_1
*I *1609:X O *D sky130_fd_sc_hd__clkdlybuf4s25_1
*CAP
1 *1484:A1 8.75738e-05
2 *1477:S 0.000138561
3 *1609:X 3.72196e-05
4 *522:8 0.000263355
5 *1477:S *1468:A_N 8.65905e-05
6 *1477:S *1475:B1 0
7 *1477:S *1608:A 0.000179008
8 *1477:S *563:10 0.000127159
9 *1477:S *563:12 4.43871e-06
10 *1484:A1 *1475:B1 0
11 *1484:A1 *563:10 3.86607e-05
12 *522:8 *523:48 1.83847e-05
13 *1371:A *1484:A1 0
14 *1470:A1 *1477:S 3.96737e-05
15 *1477:A1 *1477:S 0.000160641
16 *1484:B1 *1484:A1 0
*RES
1 *1609:X *522:8 4.05 
2 *522:8 *1477:S 7.995 
3 *522:8 *1484:A1 4.98 
*END

*D_NET *523 0.00678853
*CONN
*I *1464:A I *D sky130_fd_sc_hd__nand2_2
*I *1608:A I *D sky130_fd_sc_hd__clkdlybuf4s25_1
*I *1609:A I *D sky130_fd_sc_hd__clkdlybuf4s25_1
*I *1458:A1 I *D sky130_fd_sc_hd__a21o_2
*I *1610:X O *D sky130_fd_sc_hd__clkdlybuf4s25_1
*CAP
1 *1464:A 0.000325685
2 *1608:A 0.0002711
3 *1609:A 0.000127701
4 *1458:A1 0.000302377
5 *1610:X 0.000572536
6 *523:48 0.000754931
7 *523:36 0.000951973
8 *1458:A1 *1442:B 8.82186e-05
9 *1458:A1 *1458:B1 4.98008e-05
10 *1464:A *1611:A 0.00035042
11 *1464:A *524:12 0.000314459
12 *1608:A *1475:B1 6.14602e-05
13 *1608:A *525:12 0.000204725
14 *1608:A *563:12 5.64143e-05
15 *1608:A *564:36 2.37321e-05
16 *523:36 *1483:A1 6.10287e-05
17 *523:36 *1611:A 0.000116158
18 *523:36 *1627:A 0.000442272
19 *523:36 *524:12 0.000168488
20 *523:48 *1607:A 4.66108e-05
21 *1344:B *1608:A 0
22 *1371:A *1609:A 4.66108e-05
23 *1457:B *1458:A1 0
24 *1457:B *523:36 0.000186092
25 *1464:B *1464:A 0.000134784
26 *1466:A0 *523:48 8.23457e-05
27 *1466:A1 *1464:A 9.9535e-05
28 *1466:S *1464:A 0
29 *1469:A3 *523:36 3.1835e-05
30 *1477:A0 *1608:A 7.06865e-05
31 *1477:S *1608:A 0.000179008
32 *1488:A *1464:A 8.65905e-05
33 *1628:A *1608:A 5.23362e-05
34 *1655:A *1464:A 8.08498e-05
35 *369:10 *1458:A1 0.000160215
36 *384:19 *1458:A1 0
37 *519:12 *1608:A 2.49909e-05
38 *520:6 *523:48 8.23457e-05
39 *521:8 *1608:A 0.000161829
40 *522:8 *523:48 1.83847e-05
*RES
1 *1610:X *1458:A1 11.7 
2 *1610:X *523:36 14.755 
3 *523:36 *523:48 7.865 
4 *523:48 *1609:A 3.43 
5 *523:48 *1608:A 13.445 
6 *523:36 *1464:A 13.275 
*END

*D_NET *524 0.00254498
*CONN
*I *1469:C1 I *D sky130_fd_sc_hd__a311o_2
*I *1483:A1 I *D sky130_fd_sc_hd__a21oi_2
*I *1611:X O *D sky130_fd_sc_hd__clkdlybuf4s25_1
*CAP
1 *1469:C1 0
2 *1483:A1 0.00019003
3 *1611:X 0.000416356
4 *524:12 0.000606385
5 *1483:A1 *1606:A 4.41506e-05
6 *1483:A1 *1611:A 0.000178321
7 *524:12 *1611:A 2.71708e-05
8 *524:12 *1627:A 6.63492e-05
9 *1457:B *1483:A1 5.23362e-05
10 *1464:A *524:12 0.000314459
11 *1466:A1 *524:12 0.000291365
12 *519:12 *1483:A1 0.000128545
13 *523:36 *1483:A1 6.10287e-05
14 *523:36 *524:12 0.000168488
*RES
1 *1611:X *524:12 12.03 
2 *524:12 *1483:A1 8.28 
3 *524:12 *1469:C1 3.6 
*END

*D_NET *525 0.00392932
*CONN
*I *1475:A2 I *D sky130_fd_sc_hd__a21oi_2
*I *1474:A2 I *D sky130_fd_sc_hd__o21ba_2
*I *1456:B I *D sky130_fd_sc_hd__or3b_2
*I *1443:B I *D sky130_fd_sc_hd__and4_2
*I *1612:X O *D sky130_fd_sc_hd__clkdlybuf4s25_1
*CAP
1 *1475:A2 0.000152726
2 *1474:A2 1.17375e-05
3 *1456:B 0.000261419
4 *1443:B 3.239e-05
5 *1612:X 0.000487389
6 *525:36 0.000294736
7 *525:14 0.000360026
8 *525:12 0.000683878
9 *1456:B *1456:C_N 0.000123149
10 *525:14 *1456:C_N 5.69248e-06
11 *525:14 *562:25 3.24131e-05
12 *525:36 *562:25 8.90965e-05
13 *1156:B *1456:B 8.50672e-05
14 *1344:B *525:12 1.08758e-05
15 *1456:A *1456:B 0.000183048
16 *1460:A1 *1475:A2 0
17 *1475:A1 *1475:A2 0.000314943
18 *1478:S *1474:A2 2.75229e-05
19 *1479:B *1474:A2 4.82919e-05
20 *1608:A *525:12 0.000204725
21 *1654:A *1475:A2 0.000172225
22 *179:42 *1456:B 7.48954e-05
23 *379:24 *1475:A2 5.02814e-06
24 *519:12 *525:12 5.74656e-05
25 *521:8 *525:12 8.88523e-06
26 *521:10 *1456:B 8.73147e-06
27 *521:10 *525:14 5.4857e-05
28 *521:10 *525:36 6.36656e-05
29 *521:30 *1475:A2 4.43871e-06
30 *521:30 *525:36 7.00066e-05
*RES
1 *1612:X *525:12 10.725 
2 *525:12 *525:14 1.38 
3 *525:14 *1443:B 4.05 
4 *525:14 *1456:B 9.345 
5 *525:12 *525:36 2.91 
6 *525:36 *1474:A2 4.05 
7 *525:36 *1475:A2 7.53 
*END

*D_NET *526 0.00277243
*CONN
*I *1463:A I *D sky130_fd_sc_hd__or2_2
*I *1442:A I *D sky130_fd_sc_hd__nand2_2
*I *1457:A I *D sky130_fd_sc_hd__nor2_2
*I *1458:A2 I *D sky130_fd_sc_hd__a21o_2
*I *1613:X O *D sky130_fd_sc_hd__clkdlybuf4s25_1
*CAP
1 *1463:A 0.000275437
2 *1442:A 0
3 *1457:A 0
4 *1458:A2 5.90779e-05
5 *1613:X 0.000456385
6 *526:31 0.000462068
7 *526:8 0.000328832
8 *1458:A2 *1613:A 0.000163052
9 *1463:A *1627:A 8.26527e-05
10 *526:8 *1613:A 6.03359e-05
11 *1457:B *1463:A 0
12 *1457:B *526:8 8.77516e-05
13 *1457:B *526:31 0
14 *1465:A *1463:A 0.000496728
15 *389:10 *1463:A 0.000300109
*RES
1 *1613:X *526:8 6.205 
2 *526:8 *1458:A2 3.085 
3 *526:8 *1457:A 1.6 
4 *1613:X *526:31 6.375 
5 *526:31 *1442:A 3.6 
6 *526:31 *1463:A 11.865 
*END

*D_NET *527 0.00843362
*CONN
*I *1504:B1 I *D sky130_fd_sc_hd__o21a_2
*I *1501:B I *D sky130_fd_sc_hd__and2_2
*I *1511:B1 I *D sky130_fd_sc_hd__o21a_2
*I *1508:B1 I *D sky130_fd_sc_hd__o21a_2
*I *1488:B I *D sky130_fd_sc_hd__and2_2
*I *1371:B I *D sky130_fd_sc_hd__and2_2
*I *1489:B I *D sky130_fd_sc_hd__and2_2
*I *1505:B I *D sky130_fd_sc_hd__and2_2
*I *1490:B I *D sky130_fd_sc_hd__and2_2
*I *1498:B I *D sky130_fd_sc_hd__and2_2
*I *1614:X O *D sky130_fd_sc_hd__clkdlybuf4s25_1
*CAP
1 *1504:B1 0.000524879
2 *1501:B 0.000190571
3 *1511:B1 0
4 *1508:B1 0
5 *1488:B 6.10592e-05
6 *1371:B 0
7 *1489:B 1.70011e-05
8 *1505:B 3.75953e-05
9 *1490:B 0.000234221
10 *1498:B 1.66118e-05
11 *1614:X 0
12 *527:97 0.000349116
13 *527:84 0.00031358
14 *527:66 7.61608e-05
15 *527:64 0.000265641
16 *527:55 0.000731464
17 *527:49 0.00127878
18 *527:19 0.000387506
19 *527:8 0.000362412
20 *527:4 0.000365052
21 *1490:B *1505:A 0.000229922
22 *1498:B *1614:A 4.99619e-05
23 *527:8 *1614:A 0.000152562
24 *527:8 *1668:addr[5] 2.65086e-05
25 *1151:A *527:8 0.000160314
26 *1426:A *1490:B 4.66108e-05
27 *1426:B *1504:B1 5.0751e-05
28 *1435:A1 *1490:B 4.66108e-05
29 *1435:B1 *527:55 0.000231687
30 *1435:B2 *1490:B 0
31 *1435:B2 *527:19 2.23485e-05
32 *1439:A *1501:B 0.000231338
33 *1439:A *527:97 4.82919e-05
34 *1454:C *527:84 0
35 *1454:C *527:97 0
36 *1488:A *1488:B 4.92062e-05
37 *1489:A *1489:B 4.87465e-06
38 *1489:A *527:55 0.000135845
39 *1490:A *1490:B 9.09788e-06
40 *1498:A *1505:B 3.13447e-05
41 *1498:A *527:19 0.000159563
42 *1504:A1 *1501:B 6.91678e-05
43 *1511:A2 *1501:B 5.83121e-06
44 *1512:B *1501:B 0
45 *1580:D *1504:B1 3.17079e-05
46 *1580:D *527:49 6.32475e-05
47 *1585:D *527:55 2.8585e-06
48 *1586:D *1504:B1 3.10366e-05
49 *1586:D *527:49 3.81845e-05
50 *1586:D *527:55 1.04285e-06
51 *1594:D *1505:B 6.96175e-05
52 *1594:D *527:19 0.000243737
53 *1598:D *1504:B1 9.03138e-05
54 *1636:A *1504:B1 2.5137e-05
55 *1648:A *1504:B1 0
56 *1650:A *1504:B1 0
57 *1655:A *1488:B 0.000238919
58 *1655:A *527:55 1.03423e-05
59 *1655:A *527:64 0.000134314
60 *1657:A *1504:B1 0
61 *381:22 *527:8 0.000232403
62 *424:134 *1490:B 6.65903e-05
63 *424:219 *1504:B1 0
64 *483:14 *527:84 0
65 *483:14 *527:97 0
66 *483:80 *527:97 0
67 *483:99 *1501:B 0.000180682
68 *483:99 *527:97 0
69 *485:10 *1504:B1 0
70 *492:8 *1501:B 0
71 *497:16 *527:49 0
*RES
1 *1614:X *527:4 1.6 
2 *527:4 *527:8 5.295 
3 *527:8 *1498:B 2.05 
4 *527:8 *527:19 5.42 
5 *527:19 *1490:B 11.095 
6 *527:19 *1505:B 4.47 
7 *527:4 *527:49 4.4 
8 *527:49 *527:55 9.965 
9 *527:55 *1489:B 1.96 
10 *527:55 *527:64 2.175 
11 *527:64 *527:66 0.36 
12 *527:66 *1371:B 1.6 
13 *527:66 *1488:B 3.775 
14 *527:64 *527:84 4.34 
15 *527:84 *1508:B1 3.6 
16 *527:84 *527:97 4.595 
17 *527:97 *1511:B1 1.6 
18 *527:97 *1501:B 10.58 
19 *527:49 *1504:B1 12.24 
*END

*D_NET *528 0.0111904
*CONN
*I *1500:B I *D sky130_fd_sc_hd__and2_2
*I *1499:B I *D sky130_fd_sc_hd__and2_2
*I *1491:B I *D sky130_fd_sc_hd__and2_2
*I *1614:A I *D sky130_fd_sc_hd__clkdlybuf4s25_1
*I *1492:B I *D sky130_fd_sc_hd__and2_2
*I *1497:B I *D sky130_fd_sc_hd__and2_2
*I *1496:B I *D sky130_fd_sc_hd__and2_2
*I *1493:B I *D sky130_fd_sc_hd__and2_2
*I *1495:B I *D sky130_fd_sc_hd__and2_2
*I *1494:B I *D sky130_fd_sc_hd__and2_2
*I *1615:X O *D sky130_fd_sc_hd__clkdlybuf4s25_1
*CAP
1 *1500:B 0
2 *1499:B 9.71884e-06
3 *1491:B 0
4 *1614:A 0.000187145
5 *1492:B 0.000167739
6 *1497:B 0.000276615
7 *1496:B 0
8 *1493:B 9.62835e-05
9 *1495:B 0.000329358
10 *1494:B 0
11 *1615:X 0.000120779
12 *528:112 0.000255106
13 *528:99 0.000408711
14 *528:95 0.000256672
15 *528:93 0.000256589
16 *528:74 0.000879179
17 *528:57 0.000573186
18 *528:42 0.000478274
19 *528:18 0.000706564
20 *528:10 0.000726705
21 *1492:B *1668:addr[5] 8.78767e-05
22 *1614:A *1668:addr[5] 4.21973e-05
23 *528:10 *1379:A2 0.000120655
24 *528:18 *534:33 0.00019637
25 *528:95 *1379:A2 3.90266e-05
26 *528:95 *582:81 0
27 *528:99 *1379:A2 1.58293e-05
28 *528:99 *582:81 0
29 *528:112 *1668:addr[5] 2.10034e-05
30 uo_out[1] *1495:B 5.42991e-05
31 *1366:B *528:10 0.000122331
32 *1375:C *1495:B 0.000239809
33 *1375:C *528:18 0.000113373
34 *1377:A *1495:B 0
35 *1435:A2 *1497:B 0.000122524
36 *1435:B2 *1499:B 4.82919e-05
37 *1436:A1 *1495:B 0.000201508
38 *1436:A1 *528:18 6.71882e-05
39 *1436:A2 *528:18 4.30866e-05
40 *1436:B2 *528:42 1.60144e-05
41 *1436:C1 *1493:B 0.000158066
42 *1437:A *528:74 8.65961e-05
43 *1440:D_N *528:74 0.000352498
44 *1440:D_N *528:93 0.000297061
45 *1441:B *528:95 6.28843e-05
46 *1441:B *528:99 0.000170642
47 *1455:A1 *1614:A 0.000500538
48 *1491:A *1492:B 2.11084e-05
49 *1491:A *1614:A 5.4155e-06
50 *1493:A *1493:B 8.65961e-05
51 *1495:A *1495:B 0.000110183
52 *1497:A *1497:B 0
53 *1497:A *528:74 4.99619e-05
54 *1498:B *1614:A 4.99619e-05
55 *1499:A *1499:B 4.82919e-05
56 *1500:A *528:93 2.23407e-05
57 *1500:A *528:95 5.53249e-06
58 *1576:D *1493:B 0.00015829
59 *1579:D *1493:B 2.67184e-05
60 *1580:D *1493:B 6.4422e-05
61 *1587:D *1614:A 2.11084e-05
62 *1590:D *528:10 0.000196405
63 *1590:D *528:42 9.56774e-05
64 *1591:CLK *528:10 0.000106997
65 *1591:CLK *528:42 5.27193e-05
66 *1593:D *1497:B 0.000159964
67 *1595:CLK *1497:B 0.000103192
68 *1595:D *528:93 1.94805e-05
69 *1595:D *528:95 1.73877e-05
70 *1647:A *1497:B 0.000123589
71 *1658:A *528:99 7.39496e-05
72 *1665:A *1497:B 0.000110545
73 *501:8 *528:42 7.47457e-05
74 *501:35 *528:42 2.53191e-06
75 *518:40 *1495:B 0.000209103
76 *518:40 *528:18 0.000113373
77 *527:8 *1614:A 0.000152562
*RES
1 *1615:X *528:10 7.14 
2 *528:10 *528:18 9.625 
3 *528:18 *1494:B 3.6 
4 *528:18 *1495:B 11.91 
5 *528:10 *528:42 6.245 
6 *528:42 *1493:B 8.975 
7 *528:42 *528:57 2.175 
8 *528:57 *1496:B 1.6 
9 *528:57 *528:74 7.515 
10 *528:74 *1497:B 12.71 
11 *528:74 *528:93 5.48 
12 *528:93 *528:95 1.89 
13 *528:95 *528:99 5.93 
14 *528:99 *1492:B 4.48 
15 *528:99 *528:112 1.155 
16 *528:112 *1614:A 7.6 
17 *528:112 *1491:B 1.6 
18 *528:95 *1499:B 4.05 
19 *528:93 *1500:B 3.6 
*END

*D_NET *529 0.00728015
*CONN
*I *1376:A2 I *D sky130_fd_sc_hd__a211o_2
*I *1664:X O *D sky130_fd_sc_hd__clkdlybuf4s25_1
*CAP
1 *1376:A2 0.00221083
2 *1664:X 0.00221083
3 *1426:B *1376:A2 0.000227133
4 *1429:B *1376:A2 0.000342789
5 *1494:A *1376:A2 8.03466e-05
6 *1495:A *1376:A2 7.67415e-06
7 *1496:A *1376:A2 0.000317373
8 *1576:D *1376:A2 9.03376e-05
9 *1579:D *1376:A2 0.000338221
10 *1590:D *1376:A2 0.000124007
11 *1591:CLK *1376:A2 4.66108e-05
12 *1591:D *1376:A2 0.000127207
13 *1594:CLK *1376:A2 0.000229697
14 *424:81 *1376:A2 1.83847e-05
15 *424:88 *1376:A2 0.000101028
16 *424:219 *1376:A2 0
17 *433:21 *1376:A2 7.89856e-05
18 *433:23 *1376:A2 0.000211098
19 *433:25 *1376:A2 0.0001947
20 *460:132 *1376:A2 9.21745e-05
21 *484:10 *1376:A2 5.36095e-05
22 *502:26 *1376:A2 4.60584e-05
23 *502:30 *1376:A2 0.00013106
*RES
1 *1664:X *1376:A2 47.965 
*END

*D_NET *530 0.000346848
*CONN
*I *1191:A I *D sky130_fd_sc_hd__xor2_2
*I *1666:X O *D sky130_fd_sc_hd__buf_1
*CAP
1 *1191:A 8.4016e-05
2 *1666:X 8.4016e-05
3 *1191:A *1668:addr[3] 0.000132205
4 *156:12 *1191:A 0
5 *432:30 *1191:A 4.66108e-05
*RES
1 *1666:X *1191:A 9.03 
*END

*D_NET *531 0.0128446
*CONN
*I *1223:A I *D sky130_fd_sc_hd__nand2_2
*I *1192:A I *D sky130_fd_sc_hd__and3_2
*I *1189:C I *D sky130_fd_sc_hd__and3b_2
*I *1193:A1 I *D sky130_fd_sc_hd__a21o_2
*I *1388:A I *D sky130_fd_sc_hd__and3_2
*I *1229:A I *D sky130_fd_sc_hd__nand2_2
*I *1383:A I *D sky130_fd_sc_hd__and3_2
*I *1385:A1 I *D sky130_fd_sc_hd__a21oi_2
*I *1225:A I *D sky130_fd_sc_hd__nand2_2
*I *1231:A I *D sky130_fd_sc_hd__nand2_2
*I *1616:X O *D sky130_fd_sc_hd__clkdlybuf4s25_1
*CAP
1 *1223:A 0
2 *1192:A 0.000117838
3 *1189:C 0.00052626
4 *1193:A1 0.000115206
5 *1388:A 0
6 *1229:A 0
7 *1383:A 0.000120588
8 *1385:A1 0
9 *1225:A 0
10 *1231:A 3.20371e-05
11 *1616:X 0.000178607
12 *531:96 0.000955993
13 *531:66 0.000292973
14 *531:49 0.000574524
15 *531:41 0.000788091
16 *531:28 0.00128498
17 *531:20 0.00123377
18 *531:14 0.000724248
19 *531:12 0.000339661
20 *531:10 0.000357484
21 *1189:C *1189:A_N 8.65961e-05
22 *1189:C *1668:addr[0] 0
23 *1189:C *532:88 6.15576e-06
24 *1189:C *583:76 0.000112466
25 *1192:A *1192:C 4.66108e-05
26 *1192:A *537:38 9.95949e-05
27 *1192:A *537:56 3.19966e-05
28 *1193:A1 *1193:B1 3.18332e-05
29 *1193:A1 *1235:A1 3.77571e-05
30 *1193:A1 *532:40 7.96104e-06
31 *1193:A1 *583:76 2.04531e-05
32 *1231:A *578:70 0.000201503
33 *531:10 *532:18 9.2741e-05
34 *531:10 *533:46 0
35 *531:12 *1364:A1 0
36 *531:12 *569:40 0
37 *531:12 *569:62 6.89789e-05
38 *531:14 *569:40 0
39 *531:20 *535:35 0.000279296
40 *531:20 *535:45 9.26973e-05
41 *531:28 *1389:C_N 2.30292e-05
42 *531:28 *535:45 0
43 *531:28 *535:78 0
44 *531:28 *577:120 0.000191243
45 *531:28 *578:70 0.000239813
46 *531:41 *1229:B 2.99518e-06
47 *531:41 *1553:RESET_B 0
48 *531:41 *535:78 0
49 *531:49 *533:46 2.26468e-05
50 *531:66 *533:46 2.10433e-05
51 *531:96 *583:76 0.000441996
52 *1190:B *1189:C 0.00012672
53 *1192:B *1192:A 1.62605e-06
54 *1192:B *531:12 6.55406e-05
55 *1192:B *531:14 2.89319e-05
56 *1192:B *531:20 2.18287e-05
57 *1193:A2 *1193:A1 1.76403e-05
58 *1194:B *1189:C 0.00012126
59 *1196:A *1189:C 4.0136e-05
60 *1225:B *531:49 9.50342e-06
61 *1225:B *531:66 5.59959e-05
62 *1228:A *531:49 4.70386e-05
63 *1247:A *531:49 0.000109931
64 *1247:B *531:49 1.95461e-05
65 *1247:C *531:41 2.0967e-05
66 *1247:C *531:49 3.08152e-05
67 *1247:D *531:41 0.000175937
68 *1348:B *1189:C 7.85466e-05
69 *1383:C *1383:A 5.31666e-05
70 *1386:B *531:66 5.39718e-05
71 *1387:A2 *531:12 0
72 *1388:C *531:20 0.000267211
73 *1390:A *531:41 2.09166e-05
74 *1392:B *531:41 0
75 *1392:C *531:41 0
76 *1393:A2 *531:28 4.70743e-05
77 *1394:D_N *531:28 1.55649e-05
78 *1395:B1 *1189:C 0
79 *1400:B *1193:A1 3.00381e-05
80 *1428:A *1189:C 4.3606e-06
81 *1441:A *1189:C 0
82 *1441:A *531:96 0
83 *1570:CLK *531:10 0.000116151
84 *1570:CLK *531:12 9.50342e-06
85 *164:10 *1189:C 0
86 *164:10 *1193:A1 1.23015e-05
87 *166:17 *1189:C 3.79853e-05
88 *188:18 *531:12 0
89 *194:10 *531:41 7.81687e-05
90 *196:18 *1231:A 4.99619e-05
91 *196:18 *531:41 0
92 *197:12 *531:41 0
93 *201:10 *1231:A 8.95932e-05
94 *201:10 *531:28 0.000105775
95 *208:8 *1189:C 0.000465431
96 *212:10 *531:49 6.36917e-05
97 *213:8 *531:66 8.7152e-06
98 *308:16 *531:20 0
99 *309:10 *531:41 0
100 *309:43 *1383:A 4.7242e-05
101 *309:43 *531:66 0
102 *315:8 *531:20 6.80075e-05
103 *315:8 *531:28 3.86545e-05
104 *332:34 *531:66 5.53549e-06
105 *457:27 *1189:C 0
106 *457:29 *1189:C 0
107 *457:58 *531:20 0.000329923
108 *460:65 *1383:A 3.09088e-05
109 *460:65 *531:66 2.11084e-05
110 *461:28 *531:12 0
*RES
1 *1616:X *531:10 6.465 
2 *531:10 *531:12 2.91 
3 *531:12 *531:14 0.7425 
4 *531:14 *531:20 10.5125 
5 *531:20 *531:28 13.775 
6 *531:28 *1231:A 5.43 
7 *531:28 *531:41 8.48 
8 *531:41 *531:49 8.63 
9 *531:49 *1225:A 3.6 
10 *531:49 *531:66 5.585 
11 *531:66 *1385:A1 1.6 
12 *531:66 *1383:A 3.895 
13 *531:41 *1229:A 1.6 
14 *531:20 *1388:A 1.6 
15 *531:14 *531:96 1.17893 
16 *531:96 *1193:A1 6.6125 
17 *531:96 *1189:C 12.1171 
18 *531:12 *1192:A 5.655 
19 *531:10 *1223:A 3.6 
*END

*D_NET *532 0.0144982
*CONN
*I *1350:A I *D sky130_fd_sc_hd__or4_2
*I *1177:A1 I *D sky130_fd_sc_hd__a21boi_2
*I *1154:C I *D sky130_fd_sc_hd__nand3b_2
*I *1155:A2 I *D sky130_fd_sc_hd__a21bo_2
*I *1172:A1 I *D sky130_fd_sc_hd__a21boi_2
*I *1173:C I *D sky130_fd_sc_hd__nand3b_2
*I *1381:B1 I *D sky130_fd_sc_hd__o21ai_2
*I *1235:A1 I *D sky130_fd_sc_hd__a21boi_2
*I *1616:A I *D sky130_fd_sc_hd__clkdlybuf4s25_1
*I *1369:A1 I *D sky130_fd_sc_hd__a21o_2
*I *1617:X O *D sky130_fd_sc_hd__clkdlybuf4s25_1
*CAP
1 *1350:A 1.17533e-05
2 *1177:A1 2.47661e-05
3 *1154:C 6.88772e-05
4 *1155:A2 0.000129676
5 *1172:A1 0
6 *1173:C 0.000133402
7 *1381:B1 0.000211022
8 *1235:A1 0.000326568
9 *1616:A 0
10 *1369:A1 0.000158952
11 *1617:X 7.84753e-05
12 *532:122 0.000281585
13 *532:113 0.000136242
14 *532:100 0.000859429
15 *532:88 0.00207841
16 *532:70 0.00170003
17 *532:40 0.000743853
18 *532:18 0.000288258
19 *532:16 0.000461229
20 *532:8 0.00051159
21 *1154:C *1154:A_N 3.74161e-05
22 *1155:A2 *596:DIODE 7.12124e-05
23 *1173:C *1173:A_N 1.47161e-05
24 *1173:C *572:65 0.000143228
25 *1235:A1 *535:18 7.81506e-05
26 *1235:A1 *574:54 0
27 *1235:A1 *576:109 0
28 *1235:A1 *583:76 0
29 *1381:B1 *1193:B1 2.07267e-05
30 *532:16 *1364:A1 4.29107e-05
31 *532:18 *1364:A1 4.41506e-05
32 *532:40 *1364:A1 8.34348e-05
33 *532:40 *535:18 8.6265e-05
34 *532:40 *537:38 1.07797e-05
35 *532:88 *1349:A 0.000178634
36 *532:88 *1363:B1 1.4174e-05
37 *532:113 *598:DIODE 7.08554e-05
38 *532:122 *598:DIODE 1.05984e-05
39 *532:122 *1154:A_N 4.82863e-05
40 *1155:A1 *1154:C 1.90487e-05
41 *1155:A1 *1155:A2 0.000154204
42 *1172:A2 *532:122 9.43195e-05
43 *1173:B *1155:A2 0
44 *1173:B *1173:C 0
45 *1177:A2 *532:100 4.82863e-05
46 *1179:A *1177:A1 7.00889e-06
47 *1179:A *532:100 5.23591e-05
48 *1189:C *532:88 6.15576e-06
49 *1193:A1 *1235:A1 3.77571e-05
50 *1193:A1 *532:40 7.96104e-06
51 *1193:A2 *532:88 5.05437e-05
52 *1194:B *1235:A1 5.63183e-05
53 *1194:B *1381:B1 1.56428e-05
54 *1213:D *532:70 0.000345353
55 *1350:C *532:8 8.90087e-05
56 *1350:C *532:16 5.83373e-05
57 *1355:A2 *532:100 0.000219404
58 *1363:A1 *532:88 8.00102e-05
59 *1363:A2 *532:88 4.7662e-05
60 *1364:A2 *1350:A 4.82863e-05
61 *1364:B1 *532:40 0.000328187
62 *1372:B *1369:A1 9.85186e-05
63 *1374:A1 *1369:A1 8.64421e-05
64 *1374:A1 *532:18 0.000424006
65 *1381:A2 *1381:B1 4.66108e-05
66 *1395:A1 *1235:A1 4.23997e-05
67 *1395:A2 *1381:B1 5.71564e-05
68 *1395:B1 *1235:A1 0
69 *1400:B *1381:B1 1.9415e-05
70 *1429:A *532:70 1.80324e-05
71 *1564:CLK *532:100 1.03323e-05
72 *1565:D *532:100 4.82919e-05
73 *1568:D *532:88 5.01066e-05
74 *1570:D *532:40 0.000112446
75 *1572:CLK *1369:A1 1.39525e-05
76 *1617:A *532:8 9.21178e-05
77 *148:12 *532:122 0.000236821
78 *149:10 *1155:A2 2.91894e-05
79 *154:25 *532:88 0.000153102
80 *154:25 *532:100 0.000275548
81 *164:10 *532:40 0
82 *164:10 *532:88 0
83 *179:42 *532:122 4.00504e-05
84 *286:16 *532:88 0.000353198
85 *287:21 *532:88 0
86 *300:22 *1350:A 2.75145e-05
87 *300:22 *1369:A1 2.01565e-05
88 *300:22 *532:16 0.000124895
89 *300:22 *532:18 1.46744e-05
90 *378:42 *1381:B1 0.000158072
91 *378:42 *532:70 3.51227e-05
92 *378:42 *532:88 0.000102289
93 *425:54 *532:70 9.9542e-05
94 *425:58 *532:70 2.85364e-05
95 *425:58 *532:88 0.000327717
96 *452:8 *532:8 8.19945e-05
97 *452:8 *532:16 9.50342e-06
98 *453:10 *532:100 0
99 *453:36 *532:100 0
100 *457:27 *532:88 3.86607e-05
101 *460:51 *1369:A1 0.000123955
102 *460:51 *532:18 7.38676e-05
103 *461:28 *532:40 5.69248e-06
104 *531:10 *532:18 9.2741e-05
*RES
1 *1617:X *532:8 5.745 
2 *532:8 *532:16 4.88 
3 *532:16 *532:18 4.245 
4 *532:18 *1369:A1 9.14 
5 *532:18 *1616:A 1.6 
6 *532:16 *532:40 7.46 
7 *532:40 *1235:A1 8.295 
8 *532:40 *1381:B1 7.275 
9 *532:8 *532:70 8.845 
10 *532:70 *532:88 24.05 
11 *532:88 *532:100 13.505 
12 *532:100 *1173:C 6 
13 *532:100 *532:113 3.14 
14 *532:113 *1172:A1 1.6 
15 *532:113 *532:122 2.88 
16 *532:122 *1155:A2 8.255 
17 *532:122 *1154:C 2.755 
18 *532:88 *1177:A1 2.395 
19 *532:70 *1350:A 4.05 
*END

*D_NET *533 0.0209459
*CONN
*I *1300:B I *D sky130_fd_sc_hd__nand2b_2
*I *1299:A_N I *D sky130_fd_sc_hd__nand2b_2
*I *1310:B I *D sky130_fd_sc_hd__nor2_2
*I *1304:A_N I *D sky130_fd_sc_hd__nand2b_2
*I *1317:A_N I *D sky130_fd_sc_hd__and3b_2
*I *1311:A2 I *D sky130_fd_sc_hd__o21ai_2
*I *1312:B I *D sky130_fd_sc_hd__or3_2
*I *1298:A I *D sky130_fd_sc_hd__nor2_2
*I *1229:B I *D sky130_fd_sc_hd__nand2_2
*I *1350:B I *D sky130_fd_sc_hd__or4_2
*I *1618:X O *D sky130_fd_sc_hd__clkdlybuf4s25_1
*CAP
1 *1300:B 0
2 *1299:A_N 2.37118e-05
3 *1310:B 0.00043168
4 *1304:A_N 0.0001308
5 *1317:A_N 0
6 *1311:A2 1.28866e-05
7 *1312:B 0.000248248
8 *1298:A 0.000176719
9 *1229:B 8.15768e-05
10 *1350:B 0.001866
11 *1618:X 0.000328067
12 *533:150 0.000692156
13 *533:144 0.00105428
14 *533:131 0.000192561
15 *533:116 0.000517854
16 *533:101 0.000586634
17 *533:93 0.000357113
18 *533:91 0.00176076
19 *533:46 0.00330561
20 *1229:B *1248:A 1.61696e-05
21 *1229:B *1553:RESET_B 6.51702e-05
22 *1229:B *579:105 1.52184e-05
23 *1298:A *1623:A 0.000106419
24 *1310:B *1310:A 0.000147733
25 *1310:B *540:77 0.000139896
26 *1310:B *589:46 0
27 *1312:B *1312:A 3.96737e-05
28 *1312:B *535:110 0.00015803
29 *533:46 *1248:A 8.5225e-05
30 *533:46 *1350:D 8.75387e-05
31 *533:46 *569:62 0.000258784
32 *533:46 *579:105 6.34101e-06
33 *533:91 *1222:A1 0.000122801
34 *533:91 *1403:B 0.000186528
35 *533:91 *1668:addr[0] 9.59969e-05
36 *533:91 *579:67 0.000386221
37 *533:91 *579:80 0.000111477
38 *533:91 *579:105 8.49205e-05
39 *533:91 *580:72 0.000649222
40 *533:91 *580:89 2.05056e-05
41 *533:91 *588:43 0.000234784
42 *533:91 *589:61 0.000142842
43 *533:101 *538:10 0.000122331
44 *533:116 *535:82 2.95708e-05
45 *533:131 *535:82 0.000192261
46 *533:144 *1310:A 6.26028e-05
47 *533:144 *535:82 8.53113e-06
48 *533:150 *589:46 0
49 *1213:B *533:46 3.79595e-05
50 *1223:B *533:46 1.77665e-05
51 *1242:B1 *1229:B 2.24723e-05
52 *1298:B *1298:A 0.000136459
53 *1299:B *533:93 8.65905e-05
54 *1301:A1 *533:93 4.92062e-05
55 *1301:A1 *533:101 4.3375e-05
56 *1301:A2 *533:93 7.99009e-05
57 *1301:A2 *533:101 7.16017e-05
58 *1302:A *533:91 0.000153308
59 *1302:A *533:93 0.00015859
60 *1302:A *533:101 2.11336e-05
61 *1302:B *533:91 0.000165942
62 *1302:B *533:93 0.000237243
63 *1302:C *533:91 6.12198e-05
64 *1307:A2 *533:116 1.01911e-05
65 *1307:A2 *533:131 2.01214e-05
66 *1308:B1 *533:116 3.24046e-05
67 *1309:B *1298:A 7.9642e-06
68 *1309:B *533:116 0.000316717
69 *1313:B *1312:B 8.8266e-05
70 *1313:B *533:131 0
71 *1313:B *533:144 0
72 *1314:B1 *1311:A2 1.34503e-05
73 *1315:B1 *1310:B 0
74 *1317:B *533:150 7.5416e-05
75 *1318:A_N *1304:A_N 3.09233e-05
76 *1350:C *533:46 5.38986e-06
77 *1364:B1 *533:46 0
78 *1384:S *533:46 2.33708e-05
79 *1404:A0 *533:91 2.05056e-05
80 *1429:A *533:46 4.143e-05
81 *1441:A *533:46 3.41424e-05
82 *1446:A1 *533:91 7.47215e-05
83 *1446:B1 *533:91 0.000228907
84 *1446:B2 *533:91 0
85 *1515:C1 *533:150 0
86 *1557:CLK *1298:A 1.52342e-05
87 *1557:CLK *533:116 7.25401e-05
88 *1558:D *1304:A_N 0.000148054
89 *1567:CLK *1350:B 0.000120012
90 *1570:CLK *533:46 5.05521e-05
91 *1570:D *533:46 8.58415e-05
92 *1603:A *533:91 0.000173166
93 *122:10 *1298:A 6.85516e-05
94 *134:65 *533:150 0
95 *134:80 *1310:B 0
96 *134:80 *533:150 0
97 *188:10 *533:46 8.77254e-05
98 *188:18 *533:46 0.000628892
99 *190:12 *533:46 0.00027042
100 *205:12 *533:46 0.000136884
101 *205:12 *533:91 3.70277e-05
102 *252:25 *533:116 2.67013e-05
103 *257:10 *1311:A2 7.00889e-06
104 *257:10 *533:144 4.01616e-05
105 *259:8 *1310:B 3.38952e-05
106 *300:22 *1350:B 0.000119756
107 *300:22 *533:46 4.66108e-05
108 *309:43 *533:46 2.84198e-05
109 *310:12 *533:46 4.11251e-05
110 *332:34 *533:46 0.000209659
111 *458:8 *533:46 4.43871e-06
112 *461:28 *533:46 2.86265e-06
113 *473:42 *533:101 0.000396937
114 *476:22 *1311:A2 4.82863e-05
115 *477:8 *1304:A_N 4.82919e-05
116 *477:10 *1304:A_N 0.000108322
117 *477:10 *533:150 8.53113e-06
118 *478:19 *1304:A_N 7.63047e-05
119 *478:19 *533:150 4.68993e-05
120 *531:10 *533:46 0
121 *531:41 *1229:B 2.99518e-06
122 *531:49 *533:46 2.26468e-05
123 *531:66 *533:46 2.10433e-05
*RES
1 *1618:X *1350:B 7.1 
2 *1350:B *533:46 32.5153 
3 *533:46 *1229:B 5.235 
4 *533:46 *533:91 37.965 
5 *533:91 *533:93 3.555 
6 *533:93 *533:101 7.745 
7 *533:101 *1298:A 7.83 
8 *533:101 *533:116 4.185 
9 *533:116 *1312:B 7.275 
10 *533:116 *533:131 2.4 
11 *533:131 *1311:A2 4.05 
12 *533:131 *533:144 2.0075 
13 *533:144 *533:150 2.4095 
14 *533:150 *1317:A_N 3.6 
15 *533:150 *1304:A_N 7.08 
16 *533:144 *1310:B 9.5651 
17 *533:93 *1299:A_N 1.96 
18 *533:91 *1300:B 1.6 
*END

*D_NET *534 0.0131057
*CONN
*I *1366:A I *D sky130_fd_sc_hd__nand2_2
*I *1425:A I *D sky130_fd_sc_hd__nand2_2
*I *1382:B I *D sky130_fd_sc_hd__and2b_2
*I *1424:A I *D sky130_fd_sc_hd__or2_2
*I *1365:A I *D sky130_fd_sc_hd__or2_2
*I *1619:X O *D sky130_fd_sc_hd__clkdlybuf4s25_1
*CAP
1 *1366:A 0.000733274
2 *1425:A 0
3 *1382:B 0.000872561
4 *1424:A 0.000542405
5 *1365:A 0
6 *1619:X 0.000289707
7 *534:41 0.0016509
8 *534:33 0.00108301
9 *534:14 0.00187006
10 *1366:A *1379:A2 7.48995e-05
11 *1382:B *1257:A 0.000159976
12 *1382:B *1399:A 0
13 *534:41 *548:10 0.00019637
14 uo_out[3] *1424:A 4.60584e-05
15 *1204:A *1382:B 0.000205497
16 *1213:A_N *1382:B 0
17 *1213:B *1382:B 0
18 *1247:B *1382:B 6.59926e-05
19 *1255:B1 *1382:B 5.11148e-06
20 *1255:B1 *1424:A 1.54318e-05
21 *1257:B *1382:B 0
22 *1258:A1 *1424:A 0.000228231
23 *1258:B1 *1424:A 0.000112767
24 *1262:C *1424:A 0
25 *1366:B *1366:A 0.000274588
26 *1367:A2 *1366:A 9.46525e-06
27 *1382:A_N *1382:B 3.03684e-05
28 *1400:C *1382:B 1.39525e-05
29 *1401:A2 *1382:B 3.68784e-05
30 *1401:A3 *1382:B 0.00011106
31 *1405:B1 *1382:B 0.0001305
32 *1405:C1 *1382:B 0.000130354
33 *1424:B *1424:A 4.56435e-05
34 *1428:B *1366:A 0.000128687
35 *1429:A *534:14 2.97872e-06
36 *1431:B *1366:A 1.88656e-05
37 *1436:A1 *1424:A 8.58007e-05
38 *1436:A2 *534:33 0.000128659
39 *1436:B2 *1366:A 0
40 *1494:A *534:33 6.95702e-05
41 *1512:B *1366:A 0.000628745
42 *1512:B *534:33 1.68169e-05
43 *1525:CLK *1366:A 8.00143e-05
44 *1574:CLK *534:33 8.73389e-06
45 *1574:D *534:33 0.000180084
46 *1575:CLK *1424:A 0.000219734
47 *1575:D *1366:A 0.000108172
48 *1575:D *1424:A 0
49 *1579:D *534:33 9.61344e-05
50 *1589:D *1366:A 1.45232e-05
51 *1605:A *1424:A 0
52 *173:10 *1424:A 3.77199e-05
53 *213:8 *1382:B 0
54 *291:16 *534:14 8.53113e-06
55 *291:31 *534:14 0.000280259
56 *297:14 *534:14 0.000129929
57 *300:22 *1382:B 9.14049e-05
58 *300:22 *534:14 0.000194649
59 *300:22 *534:33 4.55864e-06
60 *309:10 *1382:B 4.82863e-05
61 *309:43 *1382:B 0.000116832
62 *332:10 *1382:B 0
63 *425:54 *534:14 9.14049e-05
64 *433:93 *534:33 7.3987e-05
65 *433:93 *534:41 0.00021769
66 *434:10 *1382:B 0.000287535
67 *434:21 *1382:B 0.000177568
68 *434:21 *1424:A 3.89587e-05
69 *434:36 *1424:A 5.73362e-05
70 *437:14 *1424:A 0
71 *438:14 *534:41 0.000176419
72 *438:16 *534:41 2.05056e-05
73 *452:22 *534:14 8.40213e-05
74 *460:61 *1382:B 0
75 *461:14 *534:14 2.97004e-06
76 *461:14 *534:33 4.62226e-05
77 *528:18 *534:33 0.00019637
*RES
1 *1619:X *534:14 10.41 
2 *534:14 *1365:A 3.6 
3 *534:14 *534:33 15.155 
4 *534:33 *534:41 7.745 
5 *534:41 *1424:A 14.61 
6 *534:41 *1382:B 22.185 
7 *534:33 *1425:A 1.6 
8 *534:14 *1366:A 11.1093 
*END

*D_NET *535 0.0269204
*CONN
*I *1349:A I *D sky130_fd_sc_hd__or2_2
*I *1364:A1 I *D sky130_fd_sc_hd__a21o_2
*I *1388:B I *D sky130_fd_sc_hd__and3_2
*I *1304:B I *D sky130_fd_sc_hd__nand2b_2
*I *1317:C I *D sky130_fd_sc_hd__and3b_2
*I *1312:A I *D sky130_fd_sc_hd__or3_2
*I *1310:A I *D sky130_fd_sc_hd__nor2_2
*I *1311:A1 I *D sky130_fd_sc_hd__o21ai_2
*I *1231:B I *D sky130_fd_sc_hd__nand2_2
*I *1381:A1 I *D sky130_fd_sc_hd__o21ai_2
*I *1620:X O *D sky130_fd_sc_hd__clkdlybuf4s25_1
*CAP
1 *1349:A 0.00041858
2 *1364:A1 0.000250658
3 *1388:B 0
4 *1304:B 4.19884e-05
5 *1317:C 9.43166e-05
6 *1312:A 5.57419e-05
7 *1310:A 0.000343347
8 *1311:A1 0
9 *1231:B 0
10 *1381:A1 0.000152737
11 *1620:X 0
12 *535:129 0.0003407
13 *535:110 0.000351144
14 *535:82 0.000456723
15 *535:78 0.00474111
16 *535:45 0.00573672
17 *535:35 0.00138757
18 *535:18 0.000704172
19 *535:8 0.000956402
20 *535:4 0.000760473
21 *1310:A *586:50 2.75229e-05
22 *1349:A *569:62 0.000150229
23 *535:45 *1668:addr[4] 0.000319048
24 *535:45 *571:28 0.00153275
25 *535:45 *576:105 0
26 *535:78 *1206:A 0.000301815
27 *535:78 *1668:addr[1] 0.000345988
28 *535:78 *538:10 3.54284e-05
29 *535:78 *570:64 0.000342687
30 *535:78 *572:50 8.31834e-05
31 *535:78 *573:82 4.15236e-05
32 *535:78 *585:68 0.000227779
33 *535:78 *588:36 0.000460482
34 *1192:B *535:18 0
35 *1194:B *535:18 5.79855e-05
36 *1235:A1 *535:18 7.81506e-05
37 *1303:C *535:78 2.97705e-05
38 *1305:A *535:78 1.92979e-05
39 *1305:B *535:78 0
40 *1307:A2 *535:110 0.000120655
41 *1307:B1 *535:78 0
42 *1307:C1 *535:110 0
43 *1308:A2 *535:78 4.82919e-05
44 *1310:B *1310:A 0.000147733
45 *1312:B *1312:A 3.96737e-05
46 *1312:B *535:110 0.00015803
47 *1313:A *535:129 0
48 *1313:B *1312:A 8.65905e-05
49 *1313:B *535:129 0.000324312
50 *1314:A1 *1312:A 2.05056e-05
51 *1314:A1 *535:78 8.73389e-06
52 *1314:A1 *535:110 6.1357e-05
53 *1315:A1 *535:78 1.48096e-05
54 *1315:A2 *535:78 3.32916e-05
55 *1315:A3 *1310:A 0
56 *1318:B *1304:B 3.09233e-05
57 *1319:A2 *535:129 0
58 *1319:C1 *535:129 4.66108e-05
59 *1320:A2 *1304:B 0.000141606
60 *1321:B *1310:A 0.000334886
61 *1351:B *535:8 0.000495107
62 *1388:C *535:45 1.07797e-05
63 *1389:B *535:35 0
64 *1389:B *535:45 0
65 *1395:A2 *535:18 4.99159e-05
66 *1398:A2 *1381:A1 0.000153135
67 *1398:A2 *535:18 0.000132357
68 *1450:B *535:78 0
69 *1557:CLK *1310:A 3.25831e-05
70 *1557:CLK *535:82 6.91715e-05
71 *1570:D *1364:A1 9.14049e-05
72 *194:22 *535:78 5.8023e-05
73 *194:34 *535:45 0
74 *203:8 *535:78 0
75 *208:8 *1381:A1 0.000112507
76 *208:8 *535:18 0.000152804
77 *246:10 *535:78 0
78 *250:20 *535:78 0.000223022
79 *251:10 *1304:B 0.00011686
80 *251:10 *535:129 2.24992e-05
81 *252:25 *535:82 7.11219e-05
82 *256:12 *1310:A 4.82919e-05
83 *257:10 *1310:A 0
84 *259:8 *1310:A 0
85 *260:10 *535:129 0.000134236
86 *262:10 *1310:A 2.24314e-05
87 *262:10 *1317:C 2.54522e-05
88 *262:10 *535:129 8.40213e-05
89 *262:27 *1310:A 8.09021e-06
90 *288:10 *1349:A 0.000233481
91 *288:38 *1349:A 6.81984e-05
92 *289:12 *1349:A 7.06865e-05
93 *308:16 *1381:A1 0.000119279
94 *308:16 *535:35 0
95 *321:14 *1381:A1 0
96 *347:12 *535:78 0
97 *347:31 *535:78 0
98 *350:12 *535:78 0
99 *378:42 *1349:A 0.000180301
100 *378:42 *535:18 2.81707e-05
101 *378:42 *535:78 0
102 *452:22 *1349:A 6.87829e-05
103 *461:28 *1364:A1 0.000180682
104 *476:22 *1312:A 0.000159741
105 *476:22 *535:129 0.000132872
106 *531:12 *1364:A1 0
107 *531:20 *535:35 0.000279296
108 *531:20 *535:45 9.26973e-05
109 *531:28 *535:45 0
110 *531:28 *535:78 0
111 *531:41 *535:78 0
112 *532:16 *1364:A1 4.29107e-05
113 *532:18 *1364:A1 4.41506e-05
114 *532:40 *1364:A1 8.34348e-05
115 *532:40 *535:18 8.6265e-05
116 *532:88 *1349:A 0.000178634
117 *533:116 *535:82 2.95708e-05
118 *533:131 *535:82 0.000192261
119 *533:144 *1310:A 6.26028e-05
120 *533:144 *535:82 8.53113e-06
*RES
1 *1620:X *535:4 1.6 
2 *535:4 *535:8 6.59 
3 *535:8 *535:18 10.025 
4 *535:18 *1381:A1 9.575 
5 *535:18 *535:35 5.42 
6 *535:35 *535:45 21.43 
7 *535:45 *1231:B 3.6 
8 *535:45 *535:78 20.953 
9 *535:78 *535:82 4.655 
10 *535:82 *1311:A1 3.6 
11 *535:82 *1310:A 11.535 
12 *535:78 *535:110 2.79 
13 *535:110 *1312:A 3.43 
14 *535:110 *535:129 9.7 
15 *535:129 *1317:C 2.9125 
16 *535:129 *1304:B 7.235 
17 *535:35 *1388:B 3.6 
18 *535:8 *1364:A1 8.34 
19 *535:4 *1349:A 17.94 
*END

*D_NET *536 0.0155002
*CONN
*I *1671:A I *D sky130_fd_sc_hd__and2_1
*I *1546:RESET_B I *D sky130_fd_sc_hd__dfrtp_2
*I *1548:RESET_B I *D sky130_fd_sc_hd__dfrtp_2
*I *1326:A I *D sky130_fd_sc_hd__and3_2
*I *1309:A I *D sky130_fd_sc_hd__and3_2
*I *1547:RESET_B I *D sky130_fd_sc_hd__dfrtp_2
*I *1550:RESET_B I *D sky130_fd_sc_hd__dfrtp_2
*I *1549:RESET_B I *D sky130_fd_sc_hd__dfrtp_2
*I *1150:A I *D sky130_fd_sc_hd__inv_2
*I *1339:A I *D sky130_fd_sc_hd__and3_2
*I *1621:X O *D sky130_fd_sc_hd__clkdlybuf4s25_1
*CAP
1 *1671:A 0.000506971
2 *1546:RESET_B 7.91295e-05
3 *1548:RESET_B 0.000859619
4 *1326:A 4.25609e-05
5 *1309:A 1.17533e-05
6 *1547:RESET_B 0.000727877
7 *1550:RESET_B 3.01368e-05
8 *1549:RESET_B 0.000173934
9 *1150:A 0.000141836
10 *1339:A 0.00024703
11 *1621:X 0.000121337
12 *536:118 0.000431777
13 *536:50 0.000368269
14 *536:48 0.00116759
15 *536:46 0.00100915
16 *536:16 0.00143332
17 *536:6 0.00184512
18 *1326:A *1621:A 3.72916e-05
19 *1546:RESET_B *588:18 7.32259e-05
20 *1547:RESET_B *1218:B1 6.03947e-06
21 *1547:RESET_B *581:55 0.000216175
22 *1547:RESET_B *581:64 0.000288271
23 *1548:RESET_B *1160:B 0.00015149
24 *1548:RESET_B *588:18 0.000213938
25 *1671:A *1159:B1 3.59531e-06
26 *1671:A *1514:B 9.58678e-06
27 *1671:A *570:34 0.000211568
28 *1671:A *571:22 3.16643e-05
29 *1671:A *581:34 1.91843e-05
30 *1671:A *585:22 5.18735e-06
31 *1671:A *587:22 7.58388e-05
32 *536:6 *1621:A 0.000122331
33 *536:16 *1621:A 0.000161529
34 *536:16 *582:43 0.00011686
35 *536:48 *1623:A 0
36 *536:48 *581:108 0
37 *536:50 *1217:A2 0
38 *536:50 *1623:A 0
39 *1144:A *1549:RESET_B 8.8266e-05
40 *1162:B *1671:A 0
41 *1166:A2 *1549:RESET_B 7.67345e-05
42 *1216:A1 *1547:RESET_B 2.75229e-05
43 *1217:B2 *1550:RESET_B 4.82919e-05
44 *1218:A1 *1549:RESET_B 9.34171e-06
45 *1218:A1 *536:50 0.000112839
46 *1218:B2 *1547:RESET_B 4.66108e-05
47 *1218:C1 *1547:RESET_B 5.17273e-05
48 *1309:C *536:46 0.000201134
49 *1309:C *536:48 7.9642e-06
50 *1314:A2 *536:46 0.000116092
51 *1316:A_N *536:46 9.54399e-05
52 *1318:B *536:46 0.000172852
53 *1324:B1 *536:46 9.82856e-06
54 *1329:A1 *536:16 3.78034e-06
55 *1329:A2 *536:16 8.88799e-05
56 *1329:C1 *536:16 4.13249e-05
57 *1334:B1 *1150:A 0.00024933
58 *1339:B *1339:A 2.38925e-05
59 *1339:C *1339:A 8.69583e-05
60 *1518:A1 *536:48 0
61 *1519:A *536:46 0
62 *1524:A_N *1547:RESET_B 0.0001249
63 *1524:C *1547:RESET_B 6.06425e-05
64 *1527:GATE *1547:RESET_B 3.01311e-05
65 *1527:GATE *536:48 6.21553e-05
66 *1527:GATE *536:50 8.98421e-05
67 *1547:D *1548:RESET_B 8.39647e-05
68 *1548:CLK *1548:RESET_B 5.69927e-05
69 *1550:D *1549:RESET_B 4.05377e-05
70 *1556:D *1309:A 4.82863e-05
71 *1556:D *536:46 4.75576e-05
72 *1559:CLK *1339:A 3.50152e-06
73 *1559:CLK *536:16 0.000662704
74 *1562:D *1339:A 0.000271077
75 *1669:clk *1671:A 0.00015953
76 *128:14 *1549:RESET_B 0.000235654
77 *129:21 *1549:RESET_B 4.87819e-05
78 *251:10 *536:46 0.000573678
79 *256:21 *536:16 0
80 *262:37 *536:46 0
81 *263:12 *536:46 0.000116165
82 *267:10 *536:46 0.000112123
83 *426:58 *1550:RESET_B 4.51129e-05
84 *426:184 *536:16 3.3795e-05
85 *468:6 *1549:RESET_B 6.55832e-05
86 *473:42 *1309:A 2.75145e-05
87 *478:19 *536:46 0
*RES
1 *1621:X *536:6 2.74 
2 *536:6 *536:16 18.01 
3 *536:16 *1339:A 6.205 
4 *536:16 *1150:A 8.465 
5 *536:6 *536:46 17.96 
6 *536:46 *536:48 3.93 
7 *536:48 *536:50 3.165 
8 *536:50 *1549:RESET_B 6.8825 
9 *536:50 *1550:RESET_B 2.7425 
10 *536:48 *1547:RESET_B 13.8275 
11 *536:46 *1309:A 4.05 
12 *1621:X *1326:A 3.995 
13 *1547:RESET_B *536:118 2 
14 *536:118 *1548:RESET_B 9.545 
15 *536:118 *1546:RESET_B 3.635 
16 *1548:RESET_B *1671:A 9.47067 
*END

*D_NET *537 0.0243252
*CONN
*I *1621:A I *D sky130_fd_sc_hd__clkdlybuf4s25_1
*I *1303:B I *D sky130_fd_sc_hd__and3b_2
*I *1551:RESET_B I *D sky130_fd_sc_hd__dfrtp_2
*I *1552:RESET_B I *D sky130_fd_sc_hd__dfrtp_2
*I *1358:A I *D sky130_fd_sc_hd__nand2_2
*I *1360:A I *D sky130_fd_sc_hd__nand2_2
*I *1352:B1 I *D sky130_fd_sc_hd__o21ai_2
*I *1351:A I *D sky130_fd_sc_hd__nand2_2
*I *1248:A I *D sky130_fd_sc_hd__and3_2
*I *1553:RESET_B I *D sky130_fd_sc_hd__dfrtp_2
*I *1622:X O *D sky130_fd_sc_hd__clkdlybuf4s25_1
*CAP
1 *1621:A 0.00141916
2 *1303:B 3.46372e-05
3 *1551:RESET_B 0.00067407
4 *1552:RESET_B 0.000343212
5 *1358:A 4.6915e-05
6 *1360:A 0
7 *1352:B1 5.57452e-05
8 *1351:A 0
9 *1248:A 0.000256362
10 *1553:RESET_B 0.0012915
11 *1622:X 0
12 *537:160 0.00201814
13 *537:56 0.00223691
14 *537:38 0.00165893
15 *537:24 0.00151914
16 *537:10 0.000957745
17 *537:4 0.000277659
18 *1352:B1 *569:62 4.66108e-05
19 *1358:A *582:81 6.02123e-05
20 *1551:RESET_B *580:36 0.000282325
21 *1552:RESET_B *1219:A_N 0.000222416
22 *1552:RESET_B *579:52 4.04946e-05
23 *1553:RESET_B *1668:addr[1] 0.000123816
24 *1553:RESET_B *569:40 0.000656025
25 *1553:RESET_B *579:67 0
26 *1553:RESET_B *583:76 0.00168098
27 *1621:A *585:68 0
28 *537:24 *1363:B1 4.57897e-05
29 *537:38 *1192:C 1.46828e-05
30 *537:38 *569:62 0.000498327
31 *537:56 *1399:A 0.000243809
32 *537:56 *569:40 7.96104e-06
33 *537:56 *569:62 6.63771e-05
34 *537:160 *1166:B1 3.39667e-05
35 *537:160 *1221:B1 0.000407629
36 *537:160 *585:47 8.50428e-05
37 *537:160 *585:68 0.000124681
38 *537:160 *586:64 0
39 *1137:A *537:160 0
40 *1168:A *1551:RESET_B 0.000122331
41 *1171:B *537:160 4.71684e-05
42 *1192:A *537:38 9.95949e-05
43 *1192:A *537:56 3.19966e-05
44 *1209:A_N *1553:RESET_B 0.000236355
45 *1221:C1 *537:160 0.000131766
46 *1224:B *1248:A 2.23342e-05
47 *1224:B *537:56 1.18035e-05
48 *1228:A *1553:RESET_B 0.000139002
49 *1229:B *1248:A 1.61696e-05
50 *1229:B *1553:RESET_B 6.51702e-05
51 *1239:A *1553:RESET_B 0
52 *1240:B *1248:A 5.02217e-05
53 *1241:A2 *1248:A 0.000144235
54 *1242:B1 *1553:RESET_B 4.55864e-06
55 *1247:B *1248:A 1.23244e-05
56 *1247:D *1248:A 2.00272e-05
57 *1247:D *1553:RESET_B 3.41554e-05
58 *1248:B *1553:RESET_B 4.01811e-05
59 *1282:A1 *1621:A 0.000347751
60 *1284:C *1621:A 1.83847e-05
61 *1288:A1 *1621:A 0
62 *1288:A2 *1621:A 0
63 *1290:B *1621:A 0
64 *1301:A2 *537:160 3.35503e-05
65 *1315:B1 *1621:A 0
66 *1326:A *1621:A 3.72916e-05
67 *1326:C *1621:A 1.83847e-05
68 *1346:A *537:10 0.000197264
69 *1347:B *537:24 5.74791e-05
70 *1351:B *537:38 6.27029e-05
71 *1351:B *537:56 2.29937e-05
72 *1359:A2 *537:10 0
73 *1364:B1 *537:38 0.000388457
74 *1370:A2 *1248:A 0
75 *1380:B *1352:B1 9.188e-05
76 *1380:B *537:24 1.47347e-05
77 *1387:A2 *537:56 0.000121031
78 *1401:A1 *537:56 1.7635e-05
79 *1401:B1 *537:56 2.12219e-05
80 *1431:A *537:24 4.76647e-05
81 *1449:A *1553:RESET_B 8.7152e-06
82 *1449:B *1553:RESET_B 0.000161829
83 *1449:C *1553:RESET_B 2.25179e-05
84 *1451:A1 *1553:RESET_B 7.92383e-05
85 *1451:B1 *1553:RESET_B 2.73033e-05
86 *1451:D1 *1553:RESET_B 0.000202686
87 *1541:D *1621:A 0.000106272
88 *1542:CLK *1621:A 0
89 *1542:D *1621:A 7.52294e-05
90 *1555:CLK *1552:RESET_B 0
91 *1555:CLK *537:160 0
92 *1620:A *537:38 0
93 *130:14 *537:160 0
94 *133:18 *1621:A 1.88656e-05
95 *188:18 *537:56 0.000109325
96 *194:10 *1553:RESET_B 2.29301e-05
97 *205:12 *1248:A 2.39955e-05
98 *212:10 *1248:A 0
99 *250:12 *1303:B 1.7386e-05
100 *250:20 *1621:A 2.76346e-05
101 *250:20 *537:160 0.000100162
102 *285:10 *1358:A 0.00011379
103 *285:10 *537:10 0
104 *285:16 *1358:A 9.50342e-06
105 *285:16 *537:10 0
106 *285:16 *537:24 0
107 *332:34 *1248:A 5.05521e-05
108 *378:42 *537:38 0.000236355
109 *378:42 *537:56 0.000939442
110 *425:64 *537:24 2.293e-05
111 *426:25 *1551:RESET_B 0.000195674
112 *426:36 *1552:RESET_B 0
113 *434:142 *1621:A 1.89867e-06
114 *435:69 *1621:A 0
115 *442:12 *1621:A 0.000141599
116 *442:23 *1621:A 0.000161637
117 *443:18 *1621:A 0.000161637
118 *456:12 *537:24 4.35348e-05
119 *456:23 *537:24 0.000421062
120 *457:8 *537:24 4.99619e-05
121 *471:6 *1551:RESET_B 0.000143539
122 *471:33 *1552:RESET_B 0
123 *472:8 *1553:RESET_B 8.90343e-05
124 *474:10 *537:160 0
125 *531:41 *1553:RESET_B 0
126 *532:40 *537:38 1.07797e-05
127 *533:46 *1248:A 8.5225e-05
128 *536:6 *1621:A 0.000122331
129 *536:16 *1621:A 0.000161529
*RES
1 *1622:X *537:4 1.6 
2 *537:4 *537:10 5.21 
3 *537:10 *537:24 16.215 
4 *537:24 *537:38 17.695 
5 *537:38 *537:56 9.7389 
6 *537:56 *1553:RESET_B 35.545 
7 *537:56 *1248:A 8.9625 
8 *537:38 *1351:A 1.6 
9 *537:24 *1352:B1 3.01 
10 *537:10 *1360:A 3.6 
11 *537:4 *1358:A 6.98 
12 *1553:RESET_B *1552:RESET_B 8.185 
13 *1552:RESET_B *1551:RESET_B 4.485 
14 *1551:RESET_B *537:160 13.91 
15 *537:160 *1303:B 4.05 
16 *537:160 *1621:A 28.59 
*END

*D_NET *538 0.016162
*CONN
*I *1408:S I *D sky130_fd_sc_hd__mux2_1
*I *1410:S I *D sky130_fd_sc_hd__mux2_1
*I *1406:S0 I *D sky130_fd_sc_hd__mux4_2
*I *1416:S I *D sky130_fd_sc_hd__mux2_1
*I *1210:A1 I *D sky130_fd_sc_hd__o21ai_2
*I *1413:S0 I *D sky130_fd_sc_hd__mux4_2
*I *1414:S I *D sky130_fd_sc_hd__mux2_1
*I *1218:B1 I *D sky130_fd_sc_hd__o221a_2
*I *1513:B I *D sky130_fd_sc_hd__xor2_2
*I *1220:A2 I *D sky130_fd_sc_hd__a221o_2
*I *1623:X O *D sky130_fd_sc_hd__clkdlybuf4s25_1
*CAP
1 *1408:S 0.000179841
2 *1410:S 0.000105461
3 *1406:S0 0.000447282
4 *1416:S 2.22788e-05
5 *1210:A1 0.000341237
6 *1413:S0 0.000159468
7 *1414:S 3.50579e-05
8 *1218:B1 1.49292e-05
9 *1513:B 0.000965309
10 *1220:A2 5.03328e-06
11 *1623:X 0.00121034
12 *538:120 0.000558704
13 *538:92 0.000480113
14 *538:88 0.000422538
15 *538:66 0.00102476
16 *538:25 0.00144859
17 *538:10 0.000733355
18 *1210:A1 *570:64 0
19 *1210:A1 *585:108 0
20 *1210:A1 *589:46 0.000162618
21 *1218:B1 *581:108 5.05716e-06
22 *1220:A2 *583:76 4.30176e-06
23 *1408:S *548:24 5.82176e-05
24 *1413:S0 *586:54 0.000162325
25 *1513:B *1515:B1 0.00016881
26 *1513:B *1519:B 5.45215e-05
27 *1513:B *1668:addr[1] 0.000145874
28 *1513:B *574:28 8.34126e-05
29 *1513:B *582:43 0.000395742
30 *1513:B *587:38 2.72056e-05
31 *1513:B *588:36 0
32 *1513:B *589:26 0.000382794
33 *538:10 *585:47 0
34 *538:10 *585:68 0
35 *538:25 *1668:addr[1] 0.000764171
36 *538:25 *588:36 0
37 *538:66 *570:64 0.00103236
38 *538:66 *586:54 0.000194258
39 *538:66 *586:58 0.00046511
40 *538:66 *586:64 0
41 *538:66 *587:119 3.47498e-05
42 *538:66 *589:46 0
43 *1251:B *1406:S0 0.000160641
44 *1271:A *1406:S0 8.65905e-05
45 *1271:A *1410:S 5.65822e-05
46 *1288:B1 *538:66 0
47 *1290:B *538:66 0
48 *1293:B *1406:S0 1.08758e-05
49 *1293:B *538:120 1.91597e-05
50 *1293:C *1410:S 4.88568e-05
51 *1305:A *538:66 0.000120546
52 *1406:A1 *1408:S 0.000271394
53 *1407:A *1210:A1 9.58764e-05
54 *1407:A *538:92 0.000198196
55 *1407:B *1406:S0 0.000274568
56 *1407:B *538:120 0.000232105
57 *1408:A1 *1408:S 4.82863e-05
58 *1411:A *1410:S 7.86318e-05
59 *1414:A0 *1414:S 4.66108e-05
60 *1414:A1 *1414:S 2.16917e-05
61 *1415:A *538:66 4.7043e-05
62 *1416:A0 *1416:S 4.82863e-05
63 *1417:A2 *1210:A1 0.000101417
64 *1417:A2 *538:88 2.49909e-05
65 *1417:A2 *538:92 7.71289e-05
66 *1417:B2 *1210:A1 3.68682e-05
67 *1518:C1 *1513:B 0.000120321
68 *1520:B2 *1513:B 0
69 *1527:GATE *1218:B1 2.52128e-05
70 *1543:D *538:66 0
71 *1544:D *1406:S0 4.66108e-05
72 *1545:D *538:92 0.000206817
73 *1547:RESET_B *1218:B1 6.03947e-06
74 *1551:D *538:10 0.000115046
75 *1557:CLK *538:66 1.17036e-05
76 *1603:A *1210:A1 2.24748e-05
77 *130:14 *1220:A2 1.2818e-05
78 *130:14 *538:10 1.23268e-05
79 *133:18 *538:66 7.67462e-05
80 *133:48 *1210:A1 0.000105769
81 *175:25 *1210:A1 0
82 *175:38 *1210:A1 4.55864e-06
83 *246:10 *538:10 8.7019e-05
84 *246:10 *538:66 1.88602e-05
85 *250:12 *538:66 7.97096e-05
86 *426:109 *1513:B 0
87 *435:51 *1410:S 6.86726e-05
88 *435:51 *538:88 6.52933e-05
89 *435:51 *538:120 7.40107e-05
90 *435:53 *538:88 1.75536e-05
91 *435:69 *1414:S 0.000121815
92 *435:69 *538:66 0
93 *444:10 *1413:S0 0.000154488
94 *444:10 *538:66 5.16418e-05
95 *447:21 *1410:S 4.82863e-05
96 *448:33 *1410:S 4.82863e-05
97 *533:101 *538:10 0.000122331
98 *535:78 *538:10 3.54284e-05
*RES
1 *1623:X *538:10 8.16 
2 *538:10 *1220:A2 3.72375 
3 *538:10 *538:25 1.70333 
4 *538:25 *1513:B 15.513 
5 *538:25 *1218:B1 4.44125 
6 *1623:X *538:66 16.0529 
7 *538:66 *1414:S 4.74 
8 *538:66 *1413:S0 3.89 
9 *1413:S0 *538:88 2.1225 
10 *538:88 *538:92 6.185 
11 *538:92 *1210:A1 9.72933 
12 *538:92 *1416:S 4.05 
13 *538:88 *538:120 3.9 
14 *538:120 *1406:S0 5.9475 
15 *538:120 *1410:S 8.45 
16 *1406:S0 *1408:S 5.4475 
*END

*D_NET *539 0.00589622
*CONN
*I *1379:A2 I *D sky130_fd_sc_hd__a21oi_2
*I *1665:X O *D sky130_fd_sc_hd__clkdlybuf4s25_1
*CAP
1 *1379:A2 0.00185671
2 *1665:X 0.00185671
3 *1379:A2 *582:81 0.000155258
4 *1365:B *1379:A2 0.000173258
5 *1366:A *1379:A2 7.48995e-05
6 *1366:B *1379:A2 0.000326441
7 *1370:B1 *1379:A2 4.45799e-05
8 *1377:B *1379:A2 3.54966e-05
9 *1379:B1 *1379:A2 0.00015639
10 *1434:B *1379:A2 8.73103e-05
11 *1435:A1 *1379:A2 0.000122325
12 *1435:B2 *1379:A2 3.92801e-05
13 *1436:C1 *1379:A2 0.00013128
14 *1437:B *1379:A2 2.45315e-05
15 *1493:A *1379:A2 0.000120655
16 *1525:CLK *1379:A2 4.41135e-05
17 *1579:D *1379:A2 8.23457e-05
18 *1589:D *1379:A2 0.000110198
19 *461:14 *1379:A2 4.16262e-05
20 *518:40 *1379:A2 0.000212307
21 *518:44 *1379:A2 2.49909e-05
22 *528:10 *1379:A2 0.000120655
23 *528:95 *1379:A2 3.90266e-05
24 *528:99 *1379:A2 1.58293e-05
*RES
1 *1665:X *1379:A2 43.64 
*END

*D_NET *540 0.0131036
*CONN
*I *1254:A I *D sky130_fd_sc_hd__and3_2
*I *1251:A I *D sky130_fd_sc_hd__and3_2
*I *1275:A I *D sky130_fd_sc_hd__and3_2
*I *1278:A I *D sky130_fd_sc_hd__and3_2
*I *1284:A I *D sky130_fd_sc_hd__and3_2
*I *1290:A I *D sky130_fd_sc_hd__and3_2
*I *1287:A I *D sky130_fd_sc_hd__and3_2
*I *1281:A I *D sky130_fd_sc_hd__and3_2
*I *1296:A I *D sky130_fd_sc_hd__and3_2
*I *1293:A I *D sky130_fd_sc_hd__and3_2
*I *1624:X O *D sky130_fd_sc_hd__clkdlybuf4s25_1
*CAP
1 *1254:A 0.000183195
2 *1251:A 4.63662e-05
3 *1275:A 0.000219584
4 *1278:A 0
5 *1284:A 0
6 *1290:A 0.000259604
7 *1287:A 0
8 *1281:A 0.000117387
9 *1296:A 9.30761e-05
10 *1293:A 2.45386e-05
11 *1624:X 6.36142e-05
12 *540:77 0.000718083
13 *540:71 0.000530626
14 *540:58 0.00092705
15 *540:54 0.000937661
16 *540:46 0.000644274
17 *540:33 0.000559975
18 *540:18 0.000543036
19 *540:14 0.00103779
20 *540:8 0.000962085
21 *1251:A *586:147 3.86814e-05
22 uio_oe[0] *1275:A 0
23 uio_out[5] *1275:A 8.8266e-05
24 uio_out[6] *540:54 6.60458e-05
25 uio_out[6] *540:58 2.00711e-05
26 *1252:A1 *540:8 4.92062e-05
27 *1253:A *1254:A 5.12017e-06
28 *1253:A *540:14 7.12792e-05
29 *1254:B *1254:A 7.23533e-05
30 *1272:C *1251:A 1.88602e-05
31 *1275:B *1275:A 0
32 *1275:B *540:46 0
33 *1276:A2 *540:58 0.000187553
34 *1276:B1 *540:58 8.52883e-05
35 *1281:C *1281:A 4.82863e-05
36 *1281:C *540:58 0.000313857
37 *1284:B *540:77 1.26548e-05
38 *1284:C *540:71 9.50342e-06
39 *1284:C *540:77 0.000162325
40 *1287:B *1290:A 1.4389e-05
41 *1288:B1 *1290:A 0.000163204
42 *1290:C *1290:A 8.8266e-05
43 *1296:B *540:46 4.58406e-05
44 *1296:C *1296:A 8.33308e-05
45 *1310:B *540:77 0.000139896
46 *1315:B1 *540:77 0.000140981
47 *1406:A1 *1254:A 0
48 *1406:A1 *540:14 5.8023e-05
49 *1407:B *1251:A 5.17822e-05
50 *1411:A *1293:A 3.82018e-05
51 *1411:A *540:33 8.17646e-05
52 *1411:B *540:33 5.33172e-05
53 *1530:CLK *1254:A 0.000122333
54 *1538:D *540:54 5.20335e-05
55 *1539:D *540:54 0.000159321
56 *1545:D *1293:A 0
57 *1545:D *540:33 0
58 *1559:D *540:71 0
59 *1603:A *1275:A 0.000131874
60 *1603:A *540:46 0.00012263
61 *134:93 *540:14 0.00107988
62 *134:93 *540:18 0.000438511
63 *172:22 *540:14 0
64 *265:23 *540:77 0
65 *334:8 *1293:A 4.55864e-06
66 *338:10 *1251:A 7.27402e-06
67 *434:46 *1254:A 2.42236e-05
68 *434:46 *540:14 5.85508e-05
69 *434:95 *540:54 8.70891e-05
70 *434:101 *540:54 0.000160314
71 *436:54 *540:14 1.88602e-05
72 *439:28 *1254:A 6.67454e-05
73 *444:31 *540:77 0
74 *444:55 *540:71 0
75 *444:55 *540:77 0
76 *445:56 *540:58 1.60203e-05
77 *446:44 *540:58 0.000428764
78 *447:14 *540:46 0
79 *447:21 *540:33 4.82863e-05
*RES
1 *1624:X *540:8 4.395 
2 *540:8 *540:14 4.44197 
3 *540:14 *540:18 1.17893 
4 *540:18 *1293:A 4.0875 
5 *540:18 *540:33 6.2075 
6 *540:33 *1296:A 3.085 
7 *540:33 *540:46 6.035 
8 *540:46 *540:54 6.365 
9 *540:54 *540:58 10.47 
10 *540:58 *1281:A 3.1 
11 *540:58 *540:71 3.125 
12 *540:71 *540:77 11.06 
13 *540:77 *1287:A 1.6 
14 *540:77 *1290:A 5.845 
15 *540:71 *1284:A 3.6 
16 *540:54 *1278:A 1.6 
17 *540:46 *1275:A 7.905 
18 *540:14 *1251:A 5.07125 
19 *540:8 *1254:A 7.35 
*END

*D_NET *541 0.00230576
*CONN
*I *1669:inc I *D incrementer
*I *1670:HI O *D sky130_fd_sc_hd__conb_1
*CAP
1 *1669:inc 0.000480897
2 *1670:HI 0.000480897
3 *1669:inc *1672:A 7.00225e-05
4 *1669:inc *577:26 0.000503435
5 *1669:inc *577:61 2.71133e-05
6 *1669:inc *579:52 0.000221037
7 *1669:inc *580:22 0.000312248
8 *1161:B *1669:inc 0.000158741
9 *142:6 *1669:inc 5.13692e-05
*RES
1 *1670:HI *1669:inc 12.893 
*END

*D_NET *542 0.00393713
*CONN
*I *1350:D I *D sky130_fd_sc_hd__or4_2
*I *1368:B I *D sky130_fd_sc_hd__or3_2
*I *1629:X O *D sky130_fd_sc_hd__dlygate4sd3_1
*CAP
1 *1350:D 0.000233021
2 *1368:B 0.00069159
3 *1629:X 0.000144704
4 *542:8 0.00106931
5 *1368:B *585:145 0.00094054
6 *1350:C *1350:D 0.000114172
7 *1350:C *1368:B 9.82856e-06
8 *1350:C *542:8 3.85705e-05
9 *1429:A *1350:D 0.000427977
10 *1429:A *542:8 0.000128435
11 *297:14 *542:8 5.14352e-05
12 *460:10 *542:8 0
13 *533:46 *1350:D 8.75387e-05
*RES
1 *1629:X *542:8 6.3825 
2 *542:8 *1368:B 13.0125 
3 *542:8 *1350:D 8.9325 
*END

*D_NET *543 0.000893223
*CONN
*I *1369:A2 I *D sky130_fd_sc_hd__a21o_2
*I *1630:X O *D sky130_fd_sc_hd__dlygate4sd3_1
*CAP
1 *1369:A2 0.000127363
2 *1630:X 0.000127363
3 *1213:D *1369:A2 6.23713e-05
4 *1369:B1 *1369:A2 0.000344933
5 *1570:CLK *1369:A2 3.24131e-05
6 *1572:D *1369:A2 0.000150771
7 *461:28 *1369:A2 4.80085e-05
*RES
1 *1630:X *1369:A2 11.535 
*END

*D_NET *544 0.0015791
*CONN
*I *1487:A0 I *D sky130_fd_sc_hd__mux2_1
*I *1631:X O *D sky130_fd_sc_hd__dlygate4sd3_1
*CAP
1 *1487:A0 0.000309768
2 *1631:X 0.000309768
3 *1487:A0 *1422:A 1.91597e-05
4 *1487:A0 *1445:A1 0
5 *1487:A0 *1487:S 8.23457e-05
6 *1487:A0 *594:10 0.000283324
7 *1249:A1 *1487:A0 9.41701e-05
8 *1250:A *1487:A0 4.36369e-05
9 *1250:B *1487:A0 6.95739e-05
10 *1420:A2 *1487:A0 1.16578e-05
11 *1421:A1 *1487:A0 0.000151555
12 *1423:A2 *1487:A0 0.000119756
13 *1487:A1 *1487:A0 8.43862e-05
14 *433:160 *1487:A0 0
*RES
1 *1631:X *1487:A0 14.625 
*END

*D_NET *545 0.00155583
*CONN
*I *1486:A0 I *D sky130_fd_sc_hd__mux2_1
*I *1632:X O *D sky130_fd_sc_hd__dlygate4sd3_1
*CAP
1 *1486:A0 0.000442014
2 *1632:X 0.000442014
3 *1486:A0 *579:105 1.07797e-05
4 *1486:A0 *595:10 0
5 *1248:B *1486:A0 9.60047e-05
6 *1370:A2 *1486:A0 0
7 *189:16 *1486:A0 0.000461935
8 *190:12 *1486:A0 9.37731e-05
9 *205:12 *1486:A0 9.3062e-06
*RES
1 *1632:X *1486:A0 14.355 
*END

*D_NET *546 0.00308116
*CONN
*I *1353:A I *D sky130_fd_sc_hd__nor2_2
*I *1354:A I *D sky130_fd_sc_hd__nand2_2
*I *1633:X O *D sky130_fd_sc_hd__dlygate4sd3_1
*CAP
1 *1353:A 0.000309654
2 *1354:A 0.000132307
3 *1633:X 7.84481e-05
4 *546:6 0.00052041
5 *1354:A *1354:B 0.00031221
6 *546:6 *1354:B 0.000119762
7 *1344:B *1354:A 1.14169e-05
8 *1344:B *546:6 0.000413375
9 *1355:A2 *1354:A 9.5433e-05
10 *1357:A2 *1353:A 2.92612e-05
11 *1357:A2 *1354:A 0.000130887
12 *1435:B2 *1354:A 0
13 *1467:A1 *1353:A 0.000187778
14 *1638:A *1354:A 5.8322e-05
15 *283:14 *546:6 0.000277223
16 *371:10 *1353:A 0.000387034
17 *379:24 *1353:A 1.7635e-05
*RES
1 *1633:X *546:6 5.5 
2 *546:6 *1354:A 9.665 
3 *546:6 *1353:A 12.125 
*END

*D_NET *547 0.000490928
*CONN
*I *1512:A I *D sky130_fd_sc_hd__and2_2
*I *1634:X O *D sky130_fd_sc_hd__dlygate4sd3_1
*CAP
1 *1512:A 9.34626e-05
2 *1634:X 9.34626e-05
3 *1501:A *1512:A 1.83847e-05
4 *1504:A2 *1512:A 0.000279787
5 *1512:B *1512:A 5.83121e-06
*RES
1 *1634:X *1512:A 5.72 
*END

*D_NET *548 0.00702936
*CONN
*I *1260:A I *D sky130_fd_sc_hd__and3_2
*I *1257:A I *D sky130_fd_sc_hd__and3_2
*I *1263:A I *D sky130_fd_sc_hd__and3_2
*I *1269:B1_N I *D sky130_fd_sc_hd__a21bo_2
*I *1266:A I *D sky130_fd_sc_hd__and3_2
*I *1272:A I *D sky130_fd_sc_hd__and3_2
*I *1625:X O *D sky130_fd_sc_hd__clkdlybuf4s25_1
*CAP
1 *1260:A 0.00016558
2 *1257:A 0.000113641
3 *1263:A 1.04051e-05
4 *1269:B1_N 9.1703e-05
5 *1266:A 0.000110844
6 *1272:A 0.000248208
7 *1625:X 0.000252723
8 *548:39 0.000315967
9 *548:26 0.00046951
10 *548:24 0.000607781
11 *548:10 0.000690278
12 *1272:A *586:147 0.000108357
13 *548:26 *586:147 8.63479e-05
14 *1253:A *548:24 6.85339e-05
15 *1253:B *548:24 0.000211496
16 *1253:C *1266:A 8.65961e-05
17 *1255:B1 *1257:A 0.000118527
18 *1258:A1 *1260:A 4.66108e-05
19 *1263:B *548:24 3.45588e-05
20 *1263:C *548:24 8.65905e-05
21 *1265:B *1269:B1_N 0
22 *1267:A *1269:B1_N 6.28765e-05
23 *1269:A2 *1269:B1_N 3.59496e-05
24 *1272:C *1272:A 8.65961e-05
25 *1382:B *1257:A 0.000159976
26 *1406:A0 *548:24 4.79012e-05
27 *1406:A1 *548:24 0.000122325
28 *1408:A1 *548:24 0.000347023
29 *1408:S *548:24 5.82176e-05
30 *1533:D *1260:A 0.000206251
31 *1534:D *1263:A 0
32 *1575:D *1260:A 0.000333702
33 *1625:A *548:10 1.6044e-05
34 *1625:A *548:24 8.88799e-05
35 *172:22 *1269:B1_N 3.96088e-05
36 *172:22 *548:39 0.000229904
37 *173:10 *1260:A 6.66507e-05
38 *436:50 *548:24 0.000198051
39 *438:16 *548:10 0.000198046
40 *438:31 *548:10 3.03144e-05
41 *438:31 *548:24 8.34281e-06
42 *438:50 *548:24 3.09774e-05
43 *439:16 *1257:A 0.000180416
44 *448:6 *1266:A 4.66108e-05
45 *449:27 *1269:B1_N 0
46 *449:27 *1272:A 0.000278117
47 *449:27 *548:39 0
48 *449:62 *1269:B1_N 3.59496e-05
49 *534:41 *548:10 0.00019637
*RES
1 *1625:X *548:10 4.585 
2 *548:10 *548:24 15.535 
3 *548:24 *548:26 1.83 
4 *548:26 *1272:A 6.895 
5 *548:26 *548:39 4.655 
6 *548:39 *1266:A 5.43 
7 *548:39 *1269:B1_N 5.8125 
8 *548:24 *1263:A 1.96 
9 *548:10 *1257:A 9.38 
10 *1625:X *1260:A 12.27 
*END

*D_NET *549 0.00201511
*CONN
*I *1297:A I *D sky130_fd_sc_hd__nor2_2
*I *1635:X O *D sky130_fd_sc_hd__dlygate4sd3_1
*CAP
1 *1297:A 0.000461441
2 *1635:X 0.000461441
3 *1297:A *1157:A 0.000298435
4 *1297:A *1157:B 0
5 *1297:B *1297:A 0
6 *1546:CLK *1297:A 0.000142492
7 *1554:D *1297:A 0.000452229
8 *1635:A *1297:A 0.000131666
9 *426:142 *1297:A 6.74079e-05
*RES
1 *1635:X *1297:A 17.565 
*END

*D_NET *550 0.00171616
*CONN
*I *1505:A I *D sky130_fd_sc_hd__and2_2
*I *1636:X O *D sky130_fd_sc_hd__dlygate4sd3_1
*CAP
1 *1505:A 0.000295348
2 *1636:X 0.000295348
3 *1435:A1 *1505:A 0.0007739
4 *1490:B *1505:A 0.000229922
5 *1586:D *1505:A 0.000121643
*RES
1 *1636:X *1505:A 10.565 
*END

*D_NET *551 0.00295593
*CONN
*I *1141:A I *D sky130_fd_sc_hd__inv_2
*I *1157:A I *D sky130_fd_sc_hd__xor2_2
*I *1637:X O *D sky130_fd_sc_hd__dlygate4sd3_1
*CAP
1 *1141:A 0.000308623
2 *1157:A 0.00045142
3 *1637:X 0.000760043
4 *1141:A *588:18 8.94519e-05
5 *1157:A *1157:B 0
6 *1157:A *582:14 5.05521e-05
7 *1297:A *1157:A 0.000298435
8 *1521:A *1141:A 1.77665e-05
9 *1546:CLK *1157:A 0.000120186
10 *1546:D *1141:A 0.000102935
11 *1637:A *1141:A 0.000306812
12 *1637:A *1157:A 0.000230926
13 *1669:clk *1141:A 0.000144714
14 *473:12 *1141:A 7.40635e-05
*RES
1 *1637:X *1157:A 15.885 
2 *1637:X *1141:A 14.7 
*END

*D_NET *552 0.00129532
*CONN
*I *1354:B I *D sky130_fd_sc_hd__nand2_2
*I *1638:X O *D sky130_fd_sc_hd__dlygate4sd3_1
*CAP
1 *1354:B 0.000350136
2 *1638:X 0.000350136
3 *1354:B *1356:A 5.83121e-06
4 *1354:A *1354:B 0.00031221
5 *1357:A2 *1354:B 3.6227e-05
6 *283:18 *1354:B 0.000121019
7 *546:6 *1354:B 0.000119762
*RES
1 *1638:X *1354:B 12.945 
*END

*D_NET *553 0.00164045
*CONN
*I *1171:A I *D sky130_fd_sc_hd__xnor2_2
*I *1639:X O *D sky130_fd_sc_hd__dlygate4sd3_1
*CAP
1 *1171:A 0.00054609
2 *1639:X 0.00054609
3 *1171:A *583:76 0.000279592
4 *1219:B *1171:A 8.30853e-06
5 *1222:A2 *1171:A 3.6227e-05
6 *1553:D *1171:A 0.000162311
7 *472:27 *1171:A 6.18274e-05
*RES
1 *1639:X *1171:A 15.795 
*END

*D_NET *554 0.000598702
*CONN
*I *1356:A I *D sky130_fd_sc_hd__nand2_2
*I *1640:X O *D sky130_fd_sc_hd__dlygate4sd3_1
*CAP
1 *1356:A 0.000224612
2 *1640:X 0.000224612
3 *1354:B *1356:A 5.83121e-06
4 *1356:B *1356:A 9.13949e-06
5 *1435:B2 *1356:A 0
6 *1480:A2 *1356:A 8.52845e-05
7 *283:14 *1356:A 1.9872e-05
8 *283:18 *1356:A 2.93517e-05
*RES
1 *1640:X *1356:A 10.62 
*END

*D_NET *555 0.00106104
*CONN
*I *1334:A1 I *D sky130_fd_sc_hd__o31a_2
*I *1641:X O *D sky130_fd_sc_hd__dlygate4sd3_1
*CAP
1 *1334:A1 0.000122316
2 *1641:X 0.000122316
3 *1138:A *1334:A1 0.000275548
4 *1334:A2 *1334:A1 0.000228752
5 *1334:A3 *1334:A1 3.70355e-05
6 *1334:B1 *1334:A1 4.66108e-05
7 *1337:A2 *1334:A1 3.95055e-05
8 *270:20 *1334:A1 0.000188957
*RES
1 *1641:X *1334:A1 7.805 
*END

*D_NET *556 0.002481
*CONN
*I *1157:B I *D sky130_fd_sc_hd__xor2_2
*I *1642:X O *D sky130_fd_sc_hd__dlygate4sd3_1
*CAP
1 *1157:B 0.000820415
2 *1642:X 0.000820415
3 *1157:A *1157:B 0
4 *1297:A *1157:B 0
5 *1297:B *1157:B 0.000271923
6 *1554:D *1157:B 0
7 *1642:A *1157:B 0.000236355
8 *1669:clk *1157:B 0.000331894
*RES
1 *1642:X *1157:B 20.345 
*END

*D_NET *557 0.00170938
*CONN
*I *1159:B1 I *D sky130_fd_sc_hd__a21oi_2
*I *1643:X O *D sky130_fd_sc_hd__dlygate4sd3_1
*CAP
1 *1159:B1 0.000355746
2 *1643:X 0.000355746
3 *1159:B1 *1160:B 0.000432635
4 *1159:B1 *1514:B 0
5 *1159:B1 *588:18 6.83488e-05
6 *1159:A1 *1159:B1 4.77719e-05
7 *1159:A2 *1159:B1 9.15237e-06
8 *1161:B *1159:B1 0.000137192
9 *1162:A *1159:B1 3.9232e-05
10 *1643:A *1159:B1 6.33103e-05
11 *1671:A *1159:B1 3.59531e-06
12 *140:12 *1159:B1 0.00013749
13 *465:16 *1159:B1 5.9155e-05
*RES
1 *1643:X *1159:B1 14.88 
*END

*D_NET *558 0.00198841
*CONN
*I *1160:B I *D sky130_fd_sc_hd__nor2_2
*I *1644:X O *D sky130_fd_sc_hd__dlygate4sd3_1
*CAP
1 *1160:B 0.00036475
2 *1644:X 0.00036475
3 *1159:A1 *1160:B 0.000125897
4 *1159:A2 *1160:B 0.00028374
5 *1159:B1 *1160:B 0.000432635
6 *1160:A *1160:B 3.85202e-05
7 *1162:A *1160:B 2.97522e-05
8 *1548:RESET_B *1160:B 0.00015149
9 *1644:A *1160:B 0
10 *140:12 *1160:B 7.70147e-05
11 *465:16 *1160:B 0.000119866
*RES
1 *1644:X *1160:B 17.205 
*END

*D_NET *559 0.00955451
*CONN
*I *1357:B1 I *D sky130_fd_sc_hd__a21oi_2
*I *1353:B I *D sky130_fd_sc_hd__nor2_2
*I *1355:B1 I *D sky130_fd_sc_hd__a21oi_2
*I *1363:B1 I *D sky130_fd_sc_hd__a21oi_2
*I *1667:X O *D sky130_fd_sc_hd__clkbuf_2
*CAP
1 *1357:B1 0
2 *1353:B 0.000581197
3 *1355:B1 9.97304e-05
4 *1363:B1 0.000811553
5 *1667:X 0
6 *559:41 0.000870201
7 *559:31 0.000994671
8 *559:4 0.00161695
9 *1179:A *559:31 9.50342e-06
10 *1179:B *1353:B 6.00849e-06
11 *1179:B *1355:B1 4.54938e-05
12 *1213:B *1363:B1 0
13 *1345:A *559:31 4.94404e-05
14 *1345:B *1353:B 3.60648e-05
15 *1345:B *559:31 4.36912e-05
16 *1347:B *1363:B1 0.000183722
17 *1355:A1 *559:31 9.3062e-06
18 *1355:A2 *1353:B 0
19 *1355:A2 *1355:B1 0
20 *1357:A2 *559:41 9.96764e-05
21 *1362:A *1363:B1 0
22 *1363:A2 *1363:B1 4.41506e-05
23 *1430:A *1363:B1 0.000103122
24 *1431:A *1363:B1 0
25 *1432:A *1353:B 0.000271694
26 *1433:A *1353:B 0.000235714
27 *1433:A *559:41 5.51926e-05
28 *1433:B *1353:B 1.88602e-05
29 *1435:B2 *1353:B 0.00033517
30 *1441:B *559:31 4.70109e-05
31 *1444:A *559:41 0
32 *1461:A2 *1353:B 1.34594e-05
33 *1461:A2 *559:31 0.000576853
34 *1471:A2 *1353:B 6.58339e-05
35 *1476:A3 *1353:B 8.57024e-05
36 *1476:B1 *1353:B 0.000132872
37 *1480:A2 *1353:B 1.05984e-05
38 *1485:C1 *1353:B 0.000132872
39 *1566:D *559:31 0.000162318
40 *1568:CLK *1363:B1 8.70923e-05
41 *1580:D *1353:B 4.41506e-05
42 *1640:A *1353:B 8.23457e-05
43 *1660:A *1363:B1 6.72196e-05
44 *1667:A *1363:B1 0.0003411
45 *98:28 *1353:B 0.000450368
46 *154:10 *559:41 8.23457e-05
47 *284:21 *559:31 0
48 *286:16 *1363:B1 0.000136276
49 *307:22 *559:31 4.66826e-05
50 *307:29 *559:31 3.90495e-05
51 *307:73 *1353:B 0.000206018
52 *368:10 *1353:B 8.53113e-06
53 *368:10 *559:31 0
54 *378:42 *559:31 2.89319e-05
55 *425:83 *1363:B1 7.1301e-06
56 *425:96 *559:31 7.07801e-05
57 *454:14 *559:31 3.77199e-05
58 *456:29 *1363:B1 0
59 *456:53 *1363:B1 1.01661e-05
60 *457:10 *1363:B1 0
61 *532:88 *1363:B1 1.4174e-05
62 *537:24 *1363:B1 4.57897e-05
*RES
1 *1667:X *559:4 1.6 
2 *559:4 *1363:B1 19.985 
3 *559:4 *559:31 17.41 
4 *559:31 *559:41 5.345 
5 *559:41 *1355:B1 5.235 
6 *559:41 *1353:B 22.915 
7 *559:31 *1357:B1 1.6 
*END

*D_NET *560 0.00102334
*CONN
*I *1361:A1 I *D sky130_fd_sc_hd__a21o_2
*I *1645:X O *D sky130_fd_sc_hd__dlygate4sd3_1
*CAP
1 *1361:A1 0.000308873
2 *1645:X 0.000308873
3 *1347:B *1361:A1 1.34594e-05
4 *1361:A2 *1361:A1 0.00012657
5 *285:16 *1361:A1 0.000265565
*RES
1 *1645:X *1361:A1 7.445 
*END

*D_NET *561 0.000749376
*CONN
*I *1166:B1 I *D sky130_fd_sc_hd__a21oi_2
*I *1646:X O *D sky130_fd_sc_hd__dlygate4sd3_1
*CAP
1 *1166:B1 0.000217187
2 *1646:X 0.000217187
3 *1166:B1 *580:36 4.43871e-06
4 *1171:B *1166:B1 0
5 *130:14 *1166:B1 7.15972e-05
6 *426:14 *1166:B1 1.83756e-05
7 *426:25 *1166:B1 0.000116912
8 *470:8 *1166:B1 6.97118e-05
9 *537:160 *1166:B1 3.39667e-05
*RES
1 *1646:X *1166:B1 12.045 
*END

*D_NET *562 0.00291233
*CONN
*I *1443:D I *D sky130_fd_sc_hd__and4_2
*I *1474:B1_N I *D sky130_fd_sc_hd__o21ba_2
*I *1478:A0 I *D sky130_fd_sc_hd__mux2_1
*I *1456:C_N I *D sky130_fd_sc_hd__or3b_2
*I *1626:X O *D sky130_fd_sc_hd__clkdlybuf4s25_1
*CAP
1 *1443:D 0
2 *1474:B1_N 0
3 *1478:A0 6.89784e-05
4 *1456:C_N 0.000219673
5 *1626:X 0.000183615
6 *562:25 0.000228573
7 *562:10 0.000412362
8 *562:6 0.000216709
9 *562:6 *1443:C 0.000263307
10 *562:6 *1627:A 8.73389e-06
11 *562:6 *564:8 4.66108e-05
12 *562:10 *1443:C 4.82919e-05
13 *1156:A *1456:C_N 2.75229e-05
14 *1156:B *1456:C_N 1.39525e-05
15 *1443:A *562:10 6.52265e-05
16 *1444:A *562:6 8.57024e-05
17 *1444:A *562:10 0.000160641
18 *1444:A *562:25 5.02217e-05
19 *1456:B *1456:C_N 0.000123149
20 *1460:A1 *1456:C_N 0.000120407
21 *1460:A1 *562:25 8.31912e-05
22 *1478:S *1478:A0 7.10578e-05
23 *1479:B *1478:A0 0.000237243
24 *179:42 *1456:C_N 4.99619e-05
25 *451:12 *1456:C_N 0
26 *525:14 *1456:C_N 5.69248e-06
27 *525:14 *562:25 3.24131e-05
28 *525:36 *562:25 8.90965e-05
*RES
1 *1626:X *562:6 5.5 
2 *562:6 *562:10 3.485 
3 *562:10 *1456:C_N 8.745 
4 *562:10 *562:25 5.93 
5 *562:25 *1478:A0 3.775 
6 *562:25 *1474:B1_N 1.6 
7 *562:6 *1443:D 1.6 
*END

*D_NET *563 0.00409896
*CONN
*I *1463:B I *D sky130_fd_sc_hd__or2_2
*I *1468:B I *D sky130_fd_sc_hd__nand2b_2
*I *1442:B I *D sky130_fd_sc_hd__nand2_2
*I *1458:B1 I *D sky130_fd_sc_hd__a21o_2
*I *1627:X O *D sky130_fd_sc_hd__clkdlybuf4s25_1
*CAP
1 *1463:B 2.99551e-05
2 *1468:B 0
3 *1442:B 0.000184003
4 *1458:B1 0.000142104
5 *1627:X 0.00055842
6 *563:12 0.000511669
7 *563:10 0.000714026
8 *1442:B *1627:A 0.000305538
9 *1458:B1 *1459:A1 0
10 *1458:B1 *1610:A 0
11 *1458:B1 *1613:A 4.82919e-05
12 *1463:B *1627:A 4.66108e-05
13 *563:10 *1607:A 0.000180682
14 *563:10 *1627:A 0.00014084
15 *563:12 *1607:A 0.00024193
16 *563:12 *1610:A 0
17 *563:12 *1613:A 0
18 *1458:A1 *1442:B 8.82186e-05
19 *1458:A1 *1458:B1 4.98008e-05
20 *1464:B *1463:B 8.49205e-05
21 *1477:S *563:10 0.000127159
22 *1477:S *563:12 4.43871e-06
23 *1484:A1 *563:10 3.86607e-05
24 *1484:A2 *563:10 0.000235568
25 *1484:B1 *563:10 0
26 *1608:A *563:12 5.64143e-05
27 *1628:A *563:12 0
28 *369:10 *1442:B 0.000309714
29 *369:10 *1458:B1 0
30 *369:10 *563:12 0
31 *384:19 *1458:B1 0
*RES
1 *1627:X *563:10 11.865 
2 *563:10 *563:12 4.185 
3 *563:12 *1458:B1 6.195 
4 *563:12 *1442:B 9.24 
5 *563:10 *1468:B 3.6 
6 *1627:X *1463:B 3.995 
*END

*D_NET *564 0.00430879
*CONN
*I *1468:A_N I *D sky130_fd_sc_hd__nand2b_2
*I *1475:B1 I *D sky130_fd_sc_hd__a21oi_2
*I *1443:C I *D sky130_fd_sc_hd__and4_2
*I *1459:A1 I *D sky130_fd_sc_hd__a21o_2
*I *1628:X O *D sky130_fd_sc_hd__clkdlybuf4s25_1
*CAP
1 *1468:A_N 5.92847e-05
2 *1475:B1 0.000239508
3 *1443:C 0.000140927
4 *1459:A1 0.000206458
5 *1628:X 0.000243895
6 *564:36 0.000425259
7 *564:10 0.000379274
8 *564:8 0.000402251
9 *1443:C *1627:A 0.000136284
10 *1459:A1 *1613:A 0.000181072
11 *564:8 *1627:A 0.000246327
12 *564:10 *1612:A 2.99953e-05
13 *564:10 *1613:A 3.97171e-05
14 *564:36 *1612:A 0.000116165
15 *1371:A *1475:B1 0.000177547
16 *1443:A *1443:C 8.49205e-05
17 *1456:A *1459:A1 0
18 *1458:B1 *1459:A1 0
19 *1459:B1 *1459:A1 1.03423e-05
20 *1460:A2 *1459:A1 4.19967e-05
21 *1460:A2 *1475:B1 5.98004e-06
22 *1460:A2 *564:10 2.16376e-05
23 *1460:A2 *564:36 0.000118735
24 *1470:A1 *1468:A_N 8.65905e-05
25 *1470:A1 *1475:B1 5.65627e-05
26 *1470:B1 *1475:B1 0.000192125
27 *1477:A0 *564:36 3.23391e-05
28 *1477:S *1468:A_N 8.65905e-05
29 *1477:S *1475:B1 0
30 *1484:A1 *1475:B1 0
31 *1485:A2 *1475:B1 6.78134e-05
32 *1608:A *1475:B1 6.14602e-05
33 *1608:A *564:36 2.37321e-05
34 *1628:A *564:36 3.57846e-05
35 *562:6 *1443:C 0.000263307
36 *562:6 *564:8 4.66108e-05
37 *562:10 *1443:C 4.82919e-05
*RES
1 *1628:X *564:8 6.81 
2 *564:8 *564:10 0.87 
3 *564:10 *1459:A1 7.05 
4 *564:10 *1443:C 7.965 
5 *564:8 *564:36 3.675 
6 *564:36 *1475:B1 9.465 
7 *564:36 *1468:A_N 4.845 
*END

*D_NET *565 0.0210314
*CONN
*I *1612:A I *D sky130_fd_sc_hd__clkdlybuf4s25_1
*I *1613:A I *D sky130_fd_sc_hd__clkdlybuf4s25_1
*I *1668:q[0] O *D tt_rom
*CAP
1 *1612:A 4.91207e-05
2 *1613:A 0.000314809
3 *1668:q[0] 0.00329548
4 *565:47 0.00496889
5 *565:39 0.00790043
6 *565:39 *568:25 0.00140617
7 *565:47 *1668:addr[0] 6.47045e-05
8 *565:47 *568:33 0.00141584
9 *1433:B *565:47 9.76789e-05
10 *1457:B *1613:A 8.6076e-05
11 *1458:A2 *1613:A 0.000163052
12 *1458:B1 *1613:A 4.82919e-05
13 *1459:A1 *1613:A 0.000181072
14 *1459:A2 *1613:A 5.30673e-05
15 *1459:B1 *1613:A 0.000538229
16 *1628:A *1612:A 0.000145907
17 *1628:A *1613:A 1.88602e-05
18 *384:6 *1613:A 3.75126e-05
19 *526:8 *1613:A 6.03359e-05
20 *563:12 *1613:A 0
21 *564:10 *1612:A 2.99953e-05
22 *564:10 *1613:A 3.97171e-05
23 *564:36 *1612:A 0.000116165
*RES
1 *1668:q[0] *565:39 48.9328 
2 *565:39 *565:47 13.0853 
3 *565:47 *1613:A 12.5475 
4 *565:47 *1612:A 5.3625 
*END

*D_NET *566 0.0102289
*CONN
*I *1611:A I *D sky130_fd_sc_hd__clkdlybuf4s25_1
*I *1610:A I *D sky130_fd_sc_hd__clkdlybuf4s25_1
*I *1668:q[1] O *D tt_rom
*CAP
1 *1611:A 0.000473306
2 *1610:A 0.00013229
3 *1668:q[1] 0.00152321
4 *566:37 0.00212881
5 *1610:A *1606:A 5.70032e-05
6 *1610:A *1607:A 1.92475e-06
7 *1610:A *1668:addr[0] 4.51607e-05
8 *1611:A *1606:A 1.35153e-05
9 *1611:A *1668:addr[0] 2.09873e-05
10 *566:37 *1668:addr[5] 0.00231177
11 *566:37 *567:27 0.00205103
12 *1457:B *1611:A 0.0001106
13 *1458:B1 *1610:A 0
14 *1464:A *1611:A 0.00035042
15 *1464:B *1611:A 7.63282e-05
16 *1465:B *1611:A 6.81424e-05
17 *1467:A2 *1611:A 2.73083e-05
18 *1469:A1 *1611:A 0.000109309
19 *1483:A1 *1611:A 0.000178321
20 *369:10 *1610:A 1.37311e-05
21 *384:19 *1611:A 0.00019176
22 *384:30 *1611:A 0.000200706
23 *523:36 *1611:A 0.000116158
24 *524:12 *1611:A 2.71708e-05
25 *563:12 *1610:A 0
*RES
1 *1668:q[1] *566:37 9.67128 
2 *566:37 *1610:A 4.82943 
3 *566:37 *1611:A 15.5112 
*END

*D_NET *567 0.00968139
*CONN
*I *1606:A I *D sky130_fd_sc_hd__clkdlybuf4s25_1
*I *1607:A I *D sky130_fd_sc_hd__clkdlybuf4s25_1
*I *1668:q[2] O *D tt_rom
*CAP
1 *1606:A 0.000229554
2 *1607:A 0.000323277
3 *1668:q[2] 0.00286892
4 *567:27 0.00342175
5 *1607:A *1668:addr[0] 0
6 *567:27 *1668:addr[5] 5.5185e-05
7 *1467:A2 *1606:A 0
8 *1467:A2 *1607:A 0
9 *1483:A1 *1606:A 4.41506e-05
10 *1483:A2 *1607:A 6.47516e-05
11 *1484:B1 *1607:A 0
12 *1610:A *1606:A 5.70032e-05
13 *1610:A *1607:A 1.92475e-06
14 *1611:A *1606:A 1.35153e-05
15 *369:10 *1606:A 4.13879e-05
16 *384:19 *1606:A 3.97211e-05
17 *523:48 *1607:A 4.66108e-05
18 *563:10 *1607:A 0.000180682
19 *563:12 *1607:A 0.00024193
20 *566:37 *567:27 0.00205103
*RES
1 *1668:q[2] *567:27 12.3245 
2 *567:27 *1607:A 9.55617 
3 *567:27 *1606:A 6.0427 
*END

*D_NET *568 0.0219879
*CONN
*I *1626:A I *D sky130_fd_sc_hd__clkdlybuf4s25_1
*I *1627:A I *D sky130_fd_sc_hd__clkdlybuf4s25_1
*I *1668:q[3] O *D tt_rom
*CAP
1 *1626:A 4.2391e-05
2 *1627:A 0.000952071
3 *1668:q[3] 0.00412011
4 *568:33 0.00406322
5 *568:25 0.00718887
6 *568:33 *1668:addr[0] 0.000632151
7 *1428:A *568:33 0
8 *1428:B *568:33 0
9 *1442:B *1627:A 0.000305538
10 *1443:C *1627:A 0.000136284
11 *1456:A *1626:A 2.53191e-06
12 *1456:A *1627:A 1.54712e-05
13 *1457:B *1627:A 1.07797e-05
14 *1460:A2 *1626:A 1.16597e-05
15 *1460:A2 *1627:A 1.33954e-05
16 *1463:A *1627:A 8.26527e-05
17 *1463:B *1627:A 4.66108e-05
18 *1464:B *1627:A 0.000101166
19 *1465:A *1627:A 0.00013977
20 *1466:A1 *1627:A 0.000162318
21 *1466:S *1627:A 0.000164679
22 *1482:B *1627:A 5.16418e-05
23 *1484:A2 *1627:A 1.08758e-05
24 *521:10 *1626:A 7.14892e-06
25 *523:36 *1627:A 0.000442272
26 *524:12 *1627:A 6.63492e-05
27 *562:6 *1627:A 8.73389e-06
28 *563:10 *1627:A 0.00014084
29 *564:8 *1627:A 0.000246327
30 *565:39 *568:25 0.00140617
31 *565:47 *568:33 0.00141584
*RES
1 *1668:q[3] *568:25 48.8176 
2 *568:25 *568:33 8.96353 
3 *568:33 *1627:A 29.3725 
4 *568:33 *1626:A 4.0875 
*END

*D_NET *569 0.0118165
*CONN
*I *1380:A I *D sky130_fd_sc_hd__and2_2
*I *1525:GATE I *D sky130_fd_sc_hd__dlclkp_2
*I *1209:X O *D sky130_fd_sc_hd__and2b_2
*CAP
1 *1380:A 0
2 *1525:GATE 0.000251262
3 *1209:X 0.00193037
4 *569:62 0.00093938
5 *569:40 0.00261849
6 *569:40 *1668:addr[1] 0.000110612
7 *569:40 *583:76 0.000176511
8 *1213:B *1525:GATE 0.000207821
9 *1234:A_N *569:40 4.82863e-05
10 *1234:B *569:40 7.23658e-05
11 *1238:C1 *569:40 1.71013e-05
12 *1244:B *569:40 0.000249969
13 *1244:C_N *569:40 0.000386226
14 *1247:B *569:40 1.03323e-05
15 *1247:D *569:40 0.000666383
16 *1349:A *569:62 0.000150229
17 *1352:B1 *569:62 4.66108e-05
18 *1380:B *569:62 9.64441e-05
19 *1382:A_N *569:40 0.00023603
20 *1387:A2 *569:40 6.92786e-05
21 *1387:A2 *569:62 1.19928e-05
22 *1397:A2 *569:40 7.9642e-06
23 *1397:B1 *569:40 0.000122337
24 *1399:B *569:40 1.17846e-05
25 *1399:B *569:62 5.83121e-06
26 *1400:A *569:40 6.30765e-05
27 *1401:A1 *569:40 1.26595e-05
28 *1401:A2 *569:62 0.000121023
29 *1401:B1 *569:40 1.00941e-05
30 *1431:A *1525:GATE 0.000406494
31 *1436:B1 *1525:GATE 0.000137993
32 *1446:A2 *569:40 4.36573e-06
33 *1451:C1 *569:40 6.95753e-05
34 *1553:RESET_B *569:40 0.000656025
35 *1570:CLK *569:62 8.8266e-05
36 *1570:D *569:62 8.75227e-05
37 *163:33 *569:40 7.22242e-05
38 *195:27 *569:40 0.000122337
39 *197:20 *569:40 0.000212371
40 *199:10 *569:40 4.66108e-05
41 *203:19 *569:40 2.89259e-05
42 *208:8 *569:40 8.73389e-06
43 *291:10 *1525:GATE 6.53543e-05
44 *321:14 *569:40 5.86717e-05
45 *378:42 *569:40 1.7635e-05
46 *452:22 *1525:GATE 1.02164e-05
47 *461:28 *569:62 0.000172323
48 *531:12 *569:40 0
49 *531:12 *569:62 6.89789e-05
50 *531:14 *569:40 0
51 *533:46 *569:62 0.000258784
52 *537:38 *569:62 0.000498327
53 *537:56 *569:40 7.96104e-06
54 *537:56 *569:62 6.63771e-05
*RES
1 *1209:X *569:40 49.59 
2 *569:40 *569:62 23.37 
3 *569:62 *1525:GATE 11.69 
4 *569:62 *1380:A 1.6 
*END

*D_NET *570 0.0384897
*CONN
*I *1487:S I *D sky130_fd_sc_hd__mux2_1
*I *1668:addr[0] I *D tt_rom
*I *1486:S I *D sky130_fd_sc_hd__mux2_1
*I *1521:B I *D sky130_fd_sc_hd__xor2_2
*I *1215:B1 I *D sky130_fd_sc_hd__a211o_2
*I *1669:q[0] O *D incrementer
*CAP
1 *1487:S 0.000118432
2 *1668:addr[0] 0.00572771
3 *1486:S 0
4 *1521:B 0.0002848
5 *1215:B1 1.36534e-05
6 *1669:q[0] 0.00147393
7 *570:78 0.00608678
8 *570:64 0.00288632
9 *570:47 0.00289739
10 *570:34 0.00169136
11 *1487:S *1445:A1 0
12 *1487:S *579:80 0
13 *1487:S *586:147 0.000112123
14 *1487:S *594:10 5.57736e-05
15 *1521:B *1516:B1 1.05827e-05
16 *1521:B *588:18 8.7152e-06
17 *1521:B *589:26 7.94617e-05
18 *1668:addr[0] *1668:addr[1] 0.000574505
19 *1668:addr[0] *1668:addr[5] 1.31342e-05
20 *1668:addr[0] *572:50 0
21 *1668:addr[0] *573:82 0.000466774
22 *1668:addr[0] *574:54 0.00217711
23 *1668:addr[0] *575:100 0.000782357
24 *1668:addr[0] *580:72 0.000241483
25 *1668:addr[0] *582:81 0.00144916
26 *570:34 *1669:rst_n 0.000143194
27 *570:34 *571:22 3.59782e-05
28 *570:34 *577:26 0
29 *570:34 *579:52 6.34311e-05
30 *570:34 *581:34 0.000131174
31 *570:34 *587:22 0.000269913
32 *570:47 *1516:A2 3.20382e-05
33 *570:47 *587:22 0.000270104
34 *570:64 *579:80 0
35 *570:64 *588:36 0.00301919
36 *570:64 *589:26 2.67069e-05
37 *570:64 *589:46 0
38 *570:78 *1412:A 0.00038879
39 *570:78 *579:84 0.000190662
40 *1159:A1 *570:34 2.77052e-05
41 *1159:A2 *570:34 0
42 *1162:B *570:34 0
43 *1163:B *1215:B1 4.66108e-05
44 *1163:B *570:34 0.000631067
45 *1189:C *1668:addr[0] 0
46 *1194:B *1668:addr[0] 5.61165e-05
47 *1210:A1 *570:64 0
48 *1216:A1 *1215:B1 4.66108e-05
49 *1239:A *1668:addr[0] 8.73954e-05
50 *1242:A3 *1668:addr[0] 4.29704e-05
51 *1248:B *1668:addr[0] 0.000336513
52 *1248:B *570:78 0
53 *1305:A *570:64 0.000193629
54 *1421:A1 *1487:S 8.23457e-05
55 *1421:B1_N *1487:S 8.53113e-06
56 *1446:A1 *1668:addr[0] 1.8865e-05
57 *1446:B2 *1668:addr[0] 0
58 *1446:B2 *570:78 0.000134242
59 *1451:A1 *1668:addr[0] 9.21068e-05
60 *1487:A0 *1487:S 8.23457e-05
61 *1581:D *570:78 1.43717e-05
62 *1607:A *1668:addr[0] 0
63 *1610:A *1668:addr[0] 4.51607e-05
64 *1611:A *1668:addr[0] 2.09873e-05
65 *1642:A *570:47 0.000201289
66 *1668:addr[8] *1668:addr[0] 0.000353384
67 *1669:clk *570:34 0.000580261
68 *1671:A *570:34 0.000211568
69 *133:18 *570:64 0
70 *163:25 *1668:addr[0] 7.25013e-05
71 *163:33 *1668:addr[0] 0.000289246
72 *172:22 *1487:S 4.21256e-05
73 *172:22 *570:64 6.58102e-05
74 *189:16 *1668:addr[0] 0.000142669
75 *190:16 *570:78 8.23457e-05
76 *195:31 *1668:addr[0] 5.69248e-06
77 *203:19 *1668:addr[0] 0
78 *347:12 *570:64 0
79 *433:168 *570:78 0.000180373
80 *466:20 *570:34 4.9968e-05
81 *466:20 *570:47 0.000134516
82 *466:54 *570:47 0.000219706
83 *533:91 *1668:addr[0] 9.59969e-05
84 *535:78 *570:64 0.000342687
85 *538:66 *570:64 0.00103236
86 *565:47 *1668:addr[0] 6.47045e-05
87 *568:33 *1668:addr[0] 0.000632151
*RES
1 *1669:q[0] *570:34 22.8454 
2 *570:34 *1215:B1 4.05 
3 *570:34 *570:47 7.1075 
4 *570:47 *1521:B 3.23663 
5 *570:47 *570:64 8.28003 
6 *570:64 *570:78 14.07 
7 *570:78 *1486:S 1.6 
8 *570:78 *1668:addr[0] 27.0322 
9 *570:64 *1487:S 6.795 
*END

*D_NET *571 0.0341963
*CONN
*I *1154:A_N I *D sky130_fd_sc_hd__nand3b_2
*I *1200:A1 I *D sky130_fd_sc_hd__a21oi_2
*I *1199:A I *D sky130_fd_sc_hd__and3_2
*I *596:DIODE I *D sky130_fd_sc_hd__diode_2
*I *1155:B1_N I *D sky130_fd_sc_hd__a21bo_2
*I *597:DIODE I *D sky130_fd_sc_hd__diode_2
*I *1669:q[10] O *D incrementer
*CAP
1 *1154:A_N 2.45316e-05
2 *1200:A1 0.000116711
3 *1199:A 0
4 *596:DIODE 0.00012652
5 *1155:B1_N 0.000180576
6 *597:DIODE 0
7 *1669:q[10] 0.00350327
8 *571:67 0.000116711
9 *571:34 0.000180576
10 *571:32 0.000184325
11 *571:28 0.00309496
12 *571:26 0.00310657
13 *571:22 0.00359721
14 *1200:A1 *1199:C 0.000239807
15 *1200:A1 *1200:A2 0.000164874
16 *1200:A1 *1672:C 2.49909e-05
17 *571:22 *1672:C 0.000104198
18 *571:22 *572:24 0.00702102
19 *571:22 *576:46 1.88602e-05
20 *571:22 *578:36 0.00172061
21 *571:22 *579:52 0.00242355
22 *571:22 *584:24 2.52967e-05
23 *571:22 *585:22 7.61921e-05
24 *571:22 *587:22 0.00013617
25 *571:22 *588:18 0.000270017
26 *571:22 *589:26 8.46807e-06
27 *571:26 *576:46 3.99313e-05
28 *571:28 *1668:addr[3] 0.00149499
29 *571:28 *1668:addr[4] 0.00231831
30 *571:28 *576:44 0.000470339
31 *571:28 *584:44 0.00119583
32 *571:32 *1668:addr[3] 7.96104e-06
33 *1154:C *1154:A_N 3.74161e-05
34 *1155:A1 *1154:A_N 5.83121e-06
35 *1155:A1 *1155:B1_N 8.7152e-06
36 *1155:A2 *596:DIODE 7.12124e-05
37 *1173:B *596:DIODE 6.3895e-05
38 *1668:addr[8] *1155:B1_N 9.81827e-05
39 *1668:addr[10] *1155:B1_N 0.000150459
40 *1671:A *571:22 3.16643e-05
41 *138:12 *1155:B1_N 8.97536e-05
42 *179:42 *1154:A_N 2.8802e-05
43 *532:122 *1154:A_N 4.82863e-05
44 *535:45 *571:28 0.00153275
45 *570:34 *571:22 3.59782e-05
*RES
1 *1669:q[10] *571:22 15.269 
2 *571:22 *571:26 3.38 
3 *571:26 *571:28 61.17 
4 *571:28 *571:32 3.125 
5 *571:32 *571:34 2 
6 *571:34 *597:DIODE 1.6 
7 *571:34 *1155:B1_N 8.7275 
8 *571:32 *596:DIODE 5.745 
9 *571:22 *571:67 2 
10 *571:67 *1199:A 1.6 
11 *571:67 *1200:A1 4.825 
12 *596:DIODE *1154:A_N 3.995 
*END

*D_NET *572 0.0331728
*CONN
*I *598:DIODE I *D sky130_fd_sc_hd__diode_2
*I *1172:B1_N I *D sky130_fd_sc_hd__a21boi_2
*I *1173:A_N I *D sky130_fd_sc_hd__nand3b_2
*I *1199:B I *D sky130_fd_sc_hd__and3_2
*I *1200:A2 I *D sky130_fd_sc_hd__a21oi_2
*I *1669:q[11] O *D incrementer
*CAP
1 *598:DIODE 8.65071e-05
2 *1172:B1_N 3.78824e-05
3 *1173:A_N 2.86873e-05
4 *1199:B 1.76563e-05
5 *1200:A2 7.51002e-05
6 *1669:q[11] 0.00333273
7 *572:65 0.000265334
8 *572:50 0.00298764
9 *572:26 9.27565e-05
10 *572:24 0.00615074
11 *1199:B *576:46 3.31051e-05
12 *1200:A2 *576:46 1.92979e-05
13 *572:24 *573:36 7.81652e-06
14 *572:24 *575:55 0.00099813
15 *572:24 *575:100 0.000167283
16 *572:24 *576:44 3.50623e-05
17 *572:24 *578:36 2.08794e-05
18 *572:24 *584:24 0.00174781
19 *572:24 *587:22 0.00174977
20 *572:50 *1668:addr[1] 0.0029585
21 *572:50 *1668:addr[4] 0.000129859
22 *572:50 *573:52 0.000199441
23 *572:50 *573:82 0.00191201
24 *572:50 *575:100 0.000267627
25 *572:50 *576:44 0.000775215
26 *572:50 *576:105 0.000650615
27 *572:50 *582:81 0.000154522
28 *1172:A2 *598:DIODE 4.88478e-05
29 *1173:C *1173:A_N 1.47161e-05
30 *1173:C *572:65 0.000143228
31 *1200:A1 *1200:A2 0.000164874
32 *1201:B *1199:B 5.53249e-06
33 *1201:C *1199:B 0
34 *1428:A *572:50 4.31143e-05
35 *1428:B *572:50 0.000279536
36 *1668:addr[0] *572:50 0
37 *1668:addr[9] *572:50 7.33596e-05
38 *1669:clk *572:24 0
39 *179:42 *598:DIODE 0.000269916
40 *179:42 *1172:B1_N 4.20252e-05
41 *532:113 *598:DIODE 7.08554e-05
42 *532:122 *598:DIODE 1.05984e-05
43 *535:78 *572:50 8.31834e-05
44 *571:22 *572:24 0.00702102
*RES
1 *1669:q[11] *572:24 15.9748 
2 *572:24 *572:26 0.5 
3 *572:26 *1200:A2 5.3175 
4 *572:26 *1199:B 4.0875 
5 *572:24 *572:50 10.152 
6 *572:50 *1173:A_N 4.0875 
7 *572:50 *572:65 4.2125 
8 *572:65 *1172:B1_N 2.395 
9 *572:65 *598:DIODE 4.48 
*END

*D_NET *573 0.02841
*CONN
*I *1177:B1_N I *D sky130_fd_sc_hd__a21boi_2
*I *1178:A_N I *D sky130_fd_sc_hd__and3b_2
*I *1200:B1 I *D sky130_fd_sc_hd__a21oi_2
*I *1199:C I *D sky130_fd_sc_hd__and3_2
*I *1669:q[12] O *D incrementer
*CAP
1 *1177:B1_N 0.00010542
2 *1178:A_N 0
3 *1200:B1 0
4 *1199:C 0.0002311
5 *1669:q[12] 0.00276156
6 *573:82 0.00279229
7 *573:52 0.000299722
8 *573:44 0.00497626
9 *573:36 0.00498233
10 *1177:B1_N *582:81 9.40578e-05
11 *573:36 *574:28 3.72101e-05
12 *573:36 *575:26 0.000390031
13 *573:36 *576:24 0.00097714
14 *573:36 *576:36 0.00383988
15 *573:36 *577:26 0.000161303
16 *573:36 *580:22 0.000344185
17 *573:52 *576:44 0.000193219
18 *573:82 *575:100 0.00110864
19 *573:82 *576:44 9.36826e-05
20 *573:82 *578:50 0.000122847
21 *573:82 *582:81 1.96989e-05
22 *1180:A *573:82 0
23 *1185:B *573:82 0.000116158
24 *1186:B *1177:B1_N 2.08556e-05
25 *1186:B *573:82 0.000186607
26 *1200:A1 *1199:C 0.000239807
27 *1237:B *573:52 2.99518e-06
28 *1428:A *573:82 0.000265063
29 *1428:B *573:82 4.11745e-05
30 *1668:addr[0] *573:82 0.000466774
31 *154:25 *1177:B1_N 0
32 *163:25 *573:82 0.000153048
33 *163:33 *573:82 0.00122616
34 *535:78 *573:82 4.15236e-05
35 *572:24 *573:36 7.81652e-06
36 *572:50 *573:52 0.000199441
37 *572:50 *573:82 0.00191201
*RES
1 *1669:q[12] *573:36 48.8536 
2 *573:36 *573:44 7.19053 
3 *573:44 *573:52 3.0327 
4 *573:52 *1199:C 5.515 
5 *573:52 *1200:B1 1.6 
6 *573:44 *573:82 13.0949 
7 *573:82 *1178:A_N 3.6 
8 *573:82 *1177:B1_N 5.745 
*END

*D_NET *574 0.0281132
*CONN
*I *599:DIODE I *D sky130_fd_sc_hd__diode_2
*I *1181:B1_N I *D sky130_fd_sc_hd__a21boi_2
*I *1182:A_N I *D sky130_fd_sc_hd__and3b_2
*I *600:DIODE I *D sky130_fd_sc_hd__diode_2
*I *1198:C_N I *D sky130_fd_sc_hd__or4bb_2
*I *601:DIODE I *D sky130_fd_sc_hd__diode_2
*I *1669:q[13] O *D incrementer
*CAP
1 *599:DIODE 0.000567896
2 *1181:B1_N 0
3 *1182:A_N 0
4 *600:DIODE 0
5 *1198:C_N 0
6 *601:DIODE 1.63446e-05
7 *1669:q[13] 0.0034049
8 *574:92 0.000750356
9 *574:77 0.000885903
10 *574:54 0.00308603
11 *574:34 3.29822e-05
12 *574:28 0.00580413
13 *601:DIODE *577:61 8.52845e-05
14 *601:DIODE *579:52 5.06989e-05
15 *574:28 *1668:addr[1] 0.000605276
16 *574:28 *575:26 0.00078371
17 *574:28 *577:26 0.00182161
18 *574:28 *578:36 0.000889809
19 *574:28 *580:22 0.00100705
20 *574:28 *583:18 0.00122884
21 *574:28 *585:22 0.000189921
22 *574:28 *585:43 3.09608e-05
23 *574:28 *589:26 0
24 *574:34 *580:47 7.96104e-06
25 *574:54 *1668:addr[1] 0.00152676
26 *574:54 *575:100 0.000505156
27 *574:54 *578:36 0.000153695
28 *574:77 *1188:B1_N 2.05056e-05
29 *574:77 *1189:A_N 5.06809e-05
30 *574:77 *575:100 2.30292e-05
31 *574:92 *1668:addr[3] 0
32 *1178:B *599:DIODE 4.99619e-05
33 *1178:C *599:DIODE 0.000317809
34 *1179:B *599:DIODE 8.8266e-05
35 *1181:A2 *599:DIODE 2.55503e-05
36 *1187:A3 *574:92 0
37 *1188:A2 *574:77 1.34594e-05
38 *1190:A *574:77 1.83756e-05
39 *1190:B *574:77 4.76725e-05
40 *1194:B *574:54 0.000120717
41 *1196:A *574:54 2.96837e-05
42 *1213:D *574:92 1.02346e-05
43 *1235:A1 *574:54 0
44 *1236:B1 *574:54 0
45 *1243:B *574:92 4.21579e-05
46 *1243:C *599:DIODE 1.47347e-05
47 *1243:C *574:92 4.77719e-05
48 *1396:A1 *574:54 0.000132052
49 *1396:A1 *574:77 0
50 *1396:A2 *574:54 5.02814e-06
51 *1513:B *574:28 8.34126e-05
52 *1668:addr[0] *574:54 0.00217711
53 *152:12 *599:DIODE 0.00015639
54 *154:41 *574:92 0.000145615
55 *160:14 *574:77 3.25368e-05
56 *161:24 *574:77 8.57024e-05
57 *163:12 *574:77 6.58955e-06
58 *179:42 *599:DIODE 0.000135124
59 *452:38 *574:77 0.000192335
60 *452:38 *574:92 0.000125262
61 *456:29 *574:92 4.8854e-05
62 *457:37 *574:77 0.000394064
63 *573:36 *574:28 3.72101e-05
*RES
1 *1669:q[13] *574:28 14.6068 
2 *574:28 *574:34 2.7325 
3 *574:34 *601:DIODE 2.395 
4 *574:34 *1198:C_N 1.6 
5 *574:28 *574:54 11.81 
6 *574:54 *600:DIODE 1.6 
7 *574:54 *574:77 14.545 
8 *574:77 *1182:A_N 1.6 
9 *574:77 *574:92 8.17 
10 *574:92 *1181:B1_N 1.6 
11 *574:92 *599:DIODE 11.41 
*END

*D_NET *575 0.0251469
*CONN
*I *1188:B1_N I *D sky130_fd_sc_hd__a21boi_2
*I *1189:A_N I *D sky130_fd_sc_hd__and3b_2
*I *1198:D_N I *D sky130_fd_sc_hd__or4bb_2
*I *1672:D I *D sky130_fd_sc_hd__nand4_1
*I *1669:q[14] O *D incrementer
*CAP
1 *1188:B1_N 1.27578e-05
2 *1189:A_N 9.71428e-05
3 *1198:D_N 0.000133147
4 *1672:D 0.000852343
5 *1669:q[14] 0.00265638
6 *575:100 0.00228371
7 *575:55 0.003237
8 *575:26 0.00443877
9 *1198:D_N *580:47 0.000159387
10 *1672:D *1672:C 0.000251865
11 *575:26 *576:24 1.6945e-05
12 *575:26 *577:26 0.000147522
13 *575:26 *578:36 7.99958e-05
14 *575:26 *580:22 0.000180289
15 *575:26 *584:24 0.000158819
16 *575:26 *585:22 3.1407e-05
17 *575:55 *578:36 0.00140485
18 *575:55 *584:24 0.000188047
19 *575:100 *1389:C_N 1.19928e-05
20 *575:100 *576:105 0.000379696
21 *575:100 *578:36 0.000501994
22 *1161:A *1672:D 6.83488e-05
23 *1161:B *1672:D 1.06624e-05
24 *1162:A *1672:D 2.49909e-05
25 *1166:A2 *1672:D 0.000388
26 *1189:C *1189:A_N 8.65961e-05
27 *1190:B *1189:A_N 4.04888e-05
28 *1195:B1_N *575:100 0.000102479
29 *1219:B *1198:D_N 0
30 *1348:B *1189:A_N 8.65961e-05
31 *1395:A1 *575:100 0.000171713
32 *1396:A1 *575:100 0.000185033
33 *1550:D *1672:D 4.61701e-06
34 *1668:addr[0] *575:100 0.000782357
35 *129:21 *1672:D 7.96104e-06
36 *160:14 *1188:B1_N 4.66108e-05
37 *160:14 *575:100 8.23457e-05
38 *163:33 *575:100 0.000353897
39 *308:16 *575:100 1.7635e-05
40 *457:29 *1189:A_N 8.7152e-06
41 *457:37 *1189:A_N 0.000174575
42 *457:37 *575:100 0.000456771
43 *457:45 *575:100 0.000217639
44 *466:20 *1672:D 3.51805e-05
45 *468:6 *1672:D 0.000254821
46 *572:24 *575:55 0.00099813
47 *572:24 *575:100 0.000167283
48 *572:50 *575:100 0.000267627
49 *573:36 *575:26 0.000390031
50 *573:82 *575:100 0.00110864
51 *574:28 *575:26 0.00078371
52 *574:54 *575:100 0.000505156
53 *574:77 *1188:B1_N 2.05056e-05
54 *574:77 *1189:A_N 5.06809e-05
55 *574:77 *575:100 2.30292e-05
*RES
1 *1669:q[14] *575:26 11.1057 
2 *575:26 *1672:D 20.2875 
3 *575:26 *575:55 3.46307 
4 *575:55 *1198:D_N 6.3725 
5 *575:55 *575:100 21.4414 
6 *575:100 *1189:A_N 8.54 
7 *575:100 *1188:B1_N 2.05 
*END

*D_NET *576 0.0344932
*CONN
*I *1235:B1_N I *D sky130_fd_sc_hd__a21boi_2
*I *1192:C I *D sky130_fd_sc_hd__and3_2
*I *1193:B1 I *D sky130_fd_sc_hd__a21o_2
*I *1672:C I *D sky130_fd_sc_hd__nand4_1
*I *1205:A1 I *D sky130_fd_sc_hd__a211o_2
*I *1198:A I *D sky130_fd_sc_hd__or4bb_2
*I *1669:q[15] O *D incrementer
*CAP
1 *1235:B1_N 0
2 *1192:C 0.000167548
3 *1193:B1 9.06544e-05
4 *1672:C 0.00205545
5 *1205:A1 3.10647e-05
6 *1198:A 0.000197664
7 *1669:q[15] 0.000621791
8 *576:109 0.000425413
9 *576:105 0.00100348
10 *576:46 0.000412909
11 *576:44 0.00320089
12 *576:40 0.00458137
13 *576:36 0.00469838
14 *576:24 0.00253633
15 *1198:A *1205:C1 0
16 *1198:A *578:36 4.61701e-06
17 *1198:A *579:52 0.000197264
18 *1672:C *1672:B 0.000269666
19 *1672:C *577:61 0.000235766
20 *576:24 *577:26 1.93612e-05
21 *576:24 *580:22 0.000826019
22 *576:44 *1668:addr[4] 0.000323245
23 *576:44 *584:44 0.000336793
24 *576:46 *578:36 2.0851e-06
25 *576:105 *1389:C_N 0.000132167
26 *576:105 *1668:addr[4] 0.000707393
27 *1145:A *1672:C 4.82863e-05
28 *1146:A *1672:C 8.06286e-05
29 *1161:B *1672:C 1.68016e-05
30 *1163:A *1672:C 0.000163293
31 *1164:A *1672:C 6.8155e-05
32 *1165:A *1672:C 7.378e-05
33 *1165:C *1672:C 0.000662398
34 *1168:A *1672:C 7.60965e-05
35 *1168:B *1672:C 0.000158384
36 *1170:A *1672:C 1.61831e-05
37 *1171:B *1672:C 5.062e-06
38 *1192:A *1192:C 4.66108e-05
39 *1192:B *1192:C 0.000108257
40 *1193:A1 *1193:B1 3.18332e-05
41 *1194:B *1193:B1 3.57349e-05
42 *1198:B *1198:A 0
43 *1199:B *576:46 3.31051e-05
44 *1200:A1 *1672:C 2.49909e-05
45 *1200:A2 *576:46 1.92979e-05
46 *1201:B *576:46 2.46007e-05
47 *1201:C *576:46 0
48 *1208:B1 *1198:A 0
49 *1209:B *1198:A 5.07419e-05
50 *1235:A1 *576:109 0
51 *1381:B1 *1193:B1 2.07267e-05
52 *1389:B *576:105 0.000172758
53 *1393:A1 *576:105 0.000178526
54 *1395:A1 *576:109 3.39597e-05
55 *1395:A2 *1192:C 2.85364e-05
56 *1395:A2 *1193:B1 0.000123225
57 *1395:A2 *576:109 0.000132645
58 *1400:B *1193:B1 0.000230429
59 *1550:D *1672:C 0.000121487
60 *1672:D *1672:C 0.000251865
61 *129:6 *1672:C 0.00018982
62 *142:6 *1672:C 8.95933e-05
63 *142:23 *1672:C 5.05521e-05
64 *144:10 *1672:C 6.02072e-05
65 *308:16 *576:105 1.39456e-05
66 *378:42 *1192:C 0.000118311
67 *457:45 *576:105 8.65961e-05
68 *457:58 *1192:C 1.68627e-05
69 *457:58 *576:109 0.000142138
70 *535:45 *576:105 0
71 *537:38 *1192:C 1.46828e-05
72 *571:22 *1672:C 0.000104198
73 *571:22 *576:46 1.88602e-05
74 *571:26 *576:46 3.99313e-05
75 *571:28 *576:44 0.000470339
76 *572:24 *576:44 3.50623e-05
77 *572:50 *576:44 0.000775215
78 *572:50 *576:105 0.000650615
79 *573:36 *576:24 0.00097714
80 *573:36 *576:36 0.00383988
81 *573:52 *576:44 0.000193219
82 *573:82 *576:44 9.36826e-05
83 *575:26 *576:24 1.6945e-05
84 *575:100 *576:105 0.000379696
*RES
1 *1669:q[15] *576:24 7.79407 
2 *576:24 *576:36 48.5996 
3 *576:36 *576:40 8.8068 
4 *576:40 *576:44 3.18913 
5 *576:44 *576:46 3.0375 
6 *576:46 *1198:A 7.32 
7 *576:46 *1205:A1 4.05 
8 *576:44 *1672:C 39.285 
9 *576:40 *576:105 11.2209 
10 *576:105 *576:109 5.42 
11 *576:109 *1193:B1 6.39 
12 *576:109 *1192:C 6.63 
13 *576:105 *1235:B1_N 1.6 
*END

*D_NET *577 0.0227031
*CONN
*I *1233:A I *D sky130_fd_sc_hd__or2_2
*I *1389:C_N I *D sky130_fd_sc_hd__nor3b_2
*I *1393:B1_N I *D sky130_fd_sc_hd__o21bai_2
*I *1232:A I *D sky130_fd_sc_hd__and2_2
*I *1205:A2 I *D sky130_fd_sc_hd__a211o_2
*I *1197:A I *D sky130_fd_sc_hd__nand2_2
*I *1672:B I *D sky130_fd_sc_hd__nand4_1
*I *1669:q[16] O *D incrementer
*CAP
1 *1233:A 0
2 *1389:C_N 0.000488461
3 *1393:B1_N 0
4 *1232:A 0
5 *1205:A2 0
6 *1197:A 0
7 *1672:B 7.20155e-05
8 *1669:q[16] 0.00174546
9 *577:120 0.00118979
10 *577:97 0.00103668
11 *577:85 0.000903473
12 *577:68 0.000717176
13 *577:61 0.00220572
14 *577:26 0.00387413
15 *1672:B *1672:A 4.66108e-05
16 *577:26 *1672:A 0
17 *577:26 *578:36 3.86648e-06
18 *577:26 *580:22 0.000690226
19 *577:26 *583:18 0.000949299
20 *577:26 *585:22 0
21 *577:61 *1217:A2 0.00015639
22 *577:61 *579:52 6.32716e-05
23 *577:61 *580:47 0.000200932
24 *577:61 *583:18 2.06578e-05
25 *577:61 *583:27 3.2723e-05
26 *577:85 *578:44 0.000321787
27 *577:120 *1391:B1 0
28 *601:DIODE *577:61 8.52845e-05
29 *1161:A *1672:B 4.82919e-05
30 *1161:A *577:26 1.23268e-05
31 *1161:B *1672:B 0.000114943
32 *1161:B *577:61 2.10214e-05
33 *1163:A *577:61 0
34 *1166:A2 *577:61 0
35 *1169:B *577:61 1.03423e-05
36 *1198:B *577:61 9.76865e-05
37 *1208:B1 *577:68 5.30673e-05
38 *1217:C1 *577:61 5.19629e-05
39 *1218:C1 *577:61 8.8266e-05
40 *1220:B2 *577:61 0.000522449
41 *1222:A2 *577:61 4.89295e-05
42 *1222:B1 *577:61 0.000397386
43 *1233:B *577:85 8.49005e-05
44 *1233:B *577:97 0.000287858
45 *1233:B *577:120 4.46731e-05
46 *1390:B *1389:C_N 5.63111e-05
47 *1390:B *577:120 2.50602e-05
48 *1391:A2 *577:120 0.00010978
49 *1392:C *577:120 0
50 *1393:A1 *1389:C_N 0
51 *1394:D_N *1389:C_N 4.99619e-05
52 *1394:D_N *577:120 0.00012657
53 *1397:A2 *1389:C_N 4.43871e-06
54 *1669:inc *577:26 0.000503435
55 *1669:inc *577:61 2.71133e-05
56 *1672:C *1672:B 0.000269666
57 *1672:C *577:61 0.000235766
58 *128:14 *577:61 2.14615e-05
59 *131:6 *577:61 0.00043044
60 *142:6 *577:61 0.000124989
61 *172:22 *577:85 0.00012657
62 *196:18 *577:120 0.000121811
63 *197:12 *577:120 1.82569e-05
64 *201:10 *577:120 0.000112631
65 *317:6 *577:120 0.000199833
66 *318:14 *577:120 6.1357e-05
67 *319:18 *577:120 7.06865e-05
68 *321:14 *1389:C_N 5.74926e-05
69 *426:58 *577:61 0.000444458
70 *426:64 *577:61 0.000308719
71 *426:70 *577:61 0
72 *531:28 *1389:C_N 2.30292e-05
73 *531:28 *577:120 0.000191243
74 *570:34 *577:26 0
75 *573:36 *577:26 0.000161303
76 *574:28 *577:26 0.00182161
77 *575:26 *577:26 0.000147522
78 *575:100 *1389:C_N 1.19928e-05
79 *576:24 *577:26 1.93612e-05
80 *576:105 *1389:C_N 0.000132167
*RES
1 *1669:q[16] *577:26 16.9011 
2 *577:26 *1672:B 4.51375 
3 *577:26 *577:61 42.89 
4 *577:61 *1197:A 1.6 
5 *577:61 *577:68 2.52 
6 *577:68 *1205:A2 1.6 
7 *577:68 *577:85 9.93 
8 *577:85 *577:97 6.915 
9 *577:97 *1232:A 1.6 
10 *577:97 *577:120 16.78 
11 *577:120 *1393:B1_N 1.6 
12 *577:120 *1389:C_N 13.46 
13 *577:85 *1233:A 1.6 
*END

*D_NET *578 0.0233638
*CONN
*I *1205:B1 I *D sky130_fd_sc_hd__a211o_2
*I *1237:A I *D sky130_fd_sc_hd__nand2_2
*I *1392:A I *D sky130_fd_sc_hd__or3_2
*I *1391:B1 I *D sky130_fd_sc_hd__o21a_2
*I *1238:A1 I *D sky130_fd_sc_hd__a221o_2
*I *1230:A I *D sky130_fd_sc_hd__or2_2
*I *1669:q[17] O *D incrementer
*CAP
1 *1205:B1 0
2 *1237:A 0
3 *1392:A 0
4 *1391:B1 8.36035e-05
5 *1238:A1 0
6 *1230:A 0
7 *1669:q[17] 0.00564882
8 *578:70 0.00045553
9 *578:61 0.000588353
10 *578:50 0.000306658
11 *578:44 0.000341276
12 *578:36 0.00589987
13 *578:36 *1205:C1 1.88602e-05
14 *578:36 *579:52 4.26195e-05
15 *578:36 *581:34 9.26031e-05
16 *578:36 *582:14 0.000291666
17 *578:36 *583:18 0.000173082
18 *578:36 *584:24 0.00103393
19 *578:36 *588:18 0.00129441
20 *1198:A *578:36 4.61701e-06
21 *1201:B *578:44 9.4087e-05
22 *1231:A *578:70 0.000201503
23 *1237:B *578:50 2.11061e-05
24 *1238:B2 *578:61 8.59173e-05
25 *1238:B2 *578:70 4.9253e-06
26 *1392:B *1391:B1 5.83518e-05
27 *1392:C *1391:B1 0.000133126
28 *194:22 *578:70 0.000237829
29 *194:34 *578:61 0.0004565
30 *194:34 *578:70 6.57684e-05
31 *195:10 *578:50 0.000134229
32 *195:10 *578:61 1.56428e-05
33 *201:10 *578:70 0.000116709
34 *531:28 *578:70 0.000239813
35 *571:22 *578:36 0.00172061
36 *572:24 *578:36 2.08794e-05
37 *573:82 *578:50 0.000122847
38 *574:28 *578:36 0.000889809
39 *574:54 *578:36 0.000153695
40 *575:26 *578:36 7.99958e-05
41 *575:55 *578:36 0.00140485
42 *575:100 *578:36 0.000501994
43 *576:46 *578:36 2.0851e-06
44 *577:26 *578:36 3.86648e-06
45 *577:85 *578:44 0.000321787
46 *577:120 *1391:B1 0
*RES
1 *1669:q[17] *578:36 43.2483 
2 *578:36 *578:44 5.76 
3 *578:44 *578:50 6.4 
4 *578:50 *1230:A 1.6 
5 *578:50 *578:61 6.09 
6 *578:61 *1238:A1 1.6 
7 *578:61 *578:70 8.655 
8 *578:70 *1391:B1 7.49 
9 *578:70 *1392:A 1.6 
10 *578:44 *1237:A 1.6 
11 *578:36 *1205:B1 1.6 
*END

*D_NET *579 0.0285004
*CONN
*I *1445:A1 I *D sky130_fd_sc_hd__a21o_2
*I *1387:B2 I *D sky130_fd_sc_hd__a22o_2
*I *1399:A I *D sky130_fd_sc_hd__or2_2
*I *1240:A I *D sky130_fd_sc_hd__nand3_2
*I *1226:A I *D sky130_fd_sc_hd__xor2_2
*I *1205:C1 I *D sky130_fd_sc_hd__a211o_2
*I *1669:q[18] O *D incrementer
*CAP
1 *1445:A1 0.000410665
2 *1387:B2 0
3 *1399:A 0.000261249
4 *1240:A 0
5 *1226:A 0
6 *1205:C1 0.000107533
7 *1669:q[18] 0.00493163
8 *579:105 0.00100905
9 *579:84 0.000930533
10 *579:80 0.000919369
11 *579:67 0.000844699
12 *579:52 0.0055579
13 *1399:A *583:76 1.20746e-05
14 *1445:A1 *1412:A 1.07797e-05
15 *1445:A1 *594:10 0
16 *579:52 *1219:A_N 4.89295e-05
17 *579:52 *1514:B 9.30148e-05
18 *579:52 *1669:rst_n 3.87391e-05
19 *579:52 *580:22 0.00212294
20 *579:52 *581:34 0.00012316
21 *579:52 *582:14 6.43464e-05
22 *579:52 *583:18 0.000117689
23 *579:52 *584:44 0.000131617
24 *579:52 *585:22 0.00149155
25 *579:52 *587:22 2.99518e-06
26 *579:52 *589:26 0.000620997
27 *579:67 *1448:A 0.000176931
28 *579:67 *1448:B 0
29 *579:80 *1412:A 2.59981e-05
30 *579:80 *580:72 1.82499e-06
31 *579:105 *1387:A1 3.21081e-06
32 *579:105 *580:89 9.45417e-05
33 *579:105 *580:97 0.000150678
34 *601:DIODE *579:52 5.06989e-05
35 *1170:B *579:52 5.66697e-05
36 *1198:A *1205:C1 0
37 *1198:A *579:52 0.000197264
38 *1201:A *1205:C1 0
39 *1201:A *579:52 0.000275548
40 *1201:C *1205:C1 4.18603e-06
41 *1208:B1 *579:67 0
42 *1209:B *579:67 0
43 *1222:B1 *579:52 0.000219092
44 *1226:B *579:80 0.000120741
45 *1229:B *579:105 1.52184e-05
46 *1240:C *579:105 4.66108e-05
47 *1242:B1 *579:105 9.50342e-06
48 *1247:B *579:105 0.000231041
49 *1382:B *1399:A 0
50 *1387:A2 *1399:A 1.88656e-05
51 *1399:B *1399:A 9.58678e-06
52 *1401:A1 *579:105 0.00012657
53 *1401:A2 *579:105 6.87286e-05
54 *1401:B1 *1399:A 0.000256593
55 *1445:B1 *579:80 0
56 *1447:B *579:52 4.82863e-05
57 *1449:A *579:67 0
58 *1449:B *579:67 9.54399e-05
59 *1449:D *579:67 0
60 *1486:A0 *579:105 1.07797e-05
61 *1487:A0 *1445:A1 0
62 *1487:S *1445:A1 0
63 *1487:S *579:80 0
64 *1527:CLK *579:67 0.000176993
65 *1552:D *579:52 7.00115e-05
66 *1552:RESET_B *579:52 4.04946e-05
67 *1553:RESET_B *579:67 0
68 *1581:D *579:80 0
69 *1581:D *579:84 1.43717e-05
70 *1669:inc *579:52 0.000221037
71 *172:22 *579:67 0
72 *188:18 *1399:A 7.24406e-06
73 *190:12 *579:105 0.000183745
74 *190:16 *579:84 0.000462829
75 *190:16 *579:105 3.57349e-05
76 *192:14 *579:105 2.16306e-05
77 *205:12 *579:105 0.00035186
78 *330:12 *579:67 3.16934e-05
79 *332:34 *579:84 0.000285587
80 *332:34 *579:105 4.80285e-05
81 *378:42 *1399:A 5.10937e-05
82 *433:160 *1445:A1 0.000286949
83 *433:168 *579:84 4.82919e-05
84 *462:16 *1445:A1 0.000266164
85 *471:33 *579:52 9.54399e-05
86 *533:46 *579:105 6.34101e-06
87 *533:91 *579:67 0.000386221
88 *533:91 *579:80 0.000111477
89 *533:91 *579:105 8.49205e-05
90 *537:56 *1399:A 0.000243809
91 *570:34 *579:52 6.34311e-05
92 *570:64 *579:80 0
93 *570:78 *579:84 0.000190662
94 *571:22 *579:52 0.00242355
95 *577:61 *579:52 6.32716e-05
96 *578:36 *1205:C1 1.88602e-05
97 *578:36 *579:52 4.26195e-05
*RES
1 *1669:q[18] *579:52 36.1652 
2 *579:52 *1205:C1 5.235 
3 *579:52 *579:67 12.29 
4 *579:67 *1226:A 1.6 
5 *579:67 *579:80 7.55 
6 *579:80 *579:84 8.66 
7 *579:84 *1240:A 1.6 
8 *579:84 *579:105 18.01 
9 *579:105 *1399:A 7.68567 
10 *579:105 *1387:B2 1.6 
11 *579:80 *1445:A1 9.795 
*END

*D_NET *580 0.0254209
*CONN
*I *1672:A I *D sky130_fd_sc_hd__nand4_1
*I *1241:A1 I *D sky130_fd_sc_hd__a21bo_2
*I *1387:A1 I *D sky130_fd_sc_hd__a22o_2
*I *1405:A1 I *D sky130_fd_sc_hd__o211a_2
*I *1224:A I *D sky130_fd_sc_hd__xor2_2
*I *1208:B2 I *D sky130_fd_sc_hd__a32o_2
*I *1197:B I *D sky130_fd_sc_hd__nand2_2
*I *1669:q[19] O *D incrementer
*CAP
1 *1672:A 6.83502e-05
2 *1241:A1 0
3 *1387:A1 4.07843e-05
4 *1405:A1 0.000138389
5 *1224:A 2.21004e-05
6 *1208:B2 5.7738e-05
7 *1197:B 0
8 *1669:q[19] 0.00123424
9 *580:97 0.000387817
10 *580:89 0.000351034
11 *580:72 0.000897255
12 *580:47 0.00107623
13 *580:36 0.00246614
14 *580:22 0.00348301
15 *580:22 *583:18 3.18827e-05
16 *580:22 *585:22 0
17 *580:22 *587:22 0
18 *580:22 *589:26 0.0021415
19 *580:36 *584:44 0.000737766
20 *580:36 *585:22 0.000442487
21 *580:47 *1208:A1 2.97004e-06
22 *580:72 *1208:A1 2.81644e-05
23 *580:72 *1448:A 0.0001249
24 *1146:A *580:36 0
25 *1161:A *1672:A 3.59531e-06
26 *1161:B *1672:A 4.66108e-05
27 *1166:B1 *580:36 4.43871e-06
28 *1171:B *580:36 0
29 *1198:B *580:47 8.68042e-06
30 *1198:D_N *580:47 0.000159387
31 *1208:B1 *580:47 0
32 *1209:A_N *580:47 9.37731e-05
33 *1209:A_N *580:72 8.41308e-05
34 *1219:B *580:47 0
35 *1222:B1 *580:47 0
36 *1226:B *580:72 0.000165241
37 *1227:A *580:72 1.61831e-05
38 *1227:B *580:72 4.99619e-05
39 *1247:B *580:97 0.000266362
40 *1248:B *580:89 6.85608e-05
41 *1386:A *1405:A1 1.12643e-05
42 *1387:A2 *1387:A1 6.22432e-06
43 *1401:A1 *1387:A1 3.23663e-05
44 *1401:A1 *580:97 1.61831e-05
45 *1401:A2 *1387:A1 4.66826e-05
46 *1401:A2 *1405:A1 1.31646e-05
47 *1401:A2 *580:97 0.000134241
48 *1401:B1 *1405:A1 8.41703e-06
49 *1404:S *580:72 2.05056e-05
50 *1405:A2 *1405:A1 6.03947e-06
51 *1405:B1 *580:97 8.57024e-05
52 *1405:C1 *1405:A1 0
53 *1405:C1 *580:72 0.000871626
54 *1405:C1 *580:89 0.000230435
55 *1405:C1 *580:97 0.000362616
56 *1446:B1 *580:89 8.69789e-05
57 *1486:A1 *580:72 8.49205e-05
58 *1527:CLK *580:72 0.000419392
59 *1551:RESET_B *580:36 0.000282325
60 *1552:D *580:36 3.07686e-05
61 *1668:addr[0] *580:72 0.000241483
62 *1669:inc *1672:A 7.00225e-05
63 *1669:inc *580:22 0.000312248
64 *1672:B *1672:A 4.66108e-05
65 *130:14 *580:36 0
66 *172:22 *580:72 0
67 *176:12 *1208:B2 3.95698e-05
68 *189:16 *580:72 4.93691e-05
69 *189:16 *580:89 1.77595e-05
70 *190:12 *580:89 8.53113e-06
71 *191:12 *580:72 4.82863e-05
72 *192:14 *580:89 8.53113e-06
73 *205:12 *580:89 4.62224e-05
74 *313:10 *1405:A1 0.000111547
75 *332:10 *1405:A1 2.0851e-06
76 *426:25 *580:36 9.26565e-05
77 *466:20 *1672:A 0.000102315
78 *466:20 *580:22 9.49828e-05
79 *470:8 *580:36 0.000207896
80 *471:6 *580:36 0.00017168
81 *533:91 *580:72 0.000649222
82 *533:91 *580:89 2.05056e-05
83 *573:36 *580:22 0.000344185
84 *574:28 *580:22 0.00100705
85 *574:34 *580:47 7.96104e-06
86 *575:26 *580:22 0.000180289
87 *576:24 *580:22 0.000826019
88 *577:26 *1672:A 0
89 *577:26 *580:22 0.000690226
90 *577:61 *580:47 0.000200932
91 *579:52 *580:22 0.00212294
92 *579:80 *580:72 1.82499e-06
93 *579:105 *1387:A1 3.21081e-06
94 *579:105 *580:89 9.45417e-05
95 *579:105 *580:97 0.000150678
*RES
1 *1669:q[19] *580:22 13.5376 
2 *580:22 *580:36 37.59 
3 *580:36 *1197:B 1.6 
4 *580:36 *580:47 7.91 
5 *580:47 *1208:B2 4.41 
6 *580:47 *580:72 25.965 
7 *580:72 *1224:A 1.96 
8 *580:72 *580:89 8.26 
9 *580:89 *580:97 7.485 
10 *580:97 *1405:A1 7.85375 
11 *580:97 *1387:A1 2.755 
12 *580:89 *1241:A1 1.6 
13 *580:22 *1672:A 5.43 
*END

*D_NET *581 0.0372157
*CONN
*I *1520:A2 I *D sky130_fd_sc_hd__o221a_2
*I *1518:A2 I *D sky130_fd_sc_hd__a221o_2
*I *1668:addr[1] I *D tt_rom
*I *1216:A2 I *D sky130_fd_sc_hd__o221a_2
*I *1215:A2 I *D sky130_fd_sc_hd__a211o_2
*I *1669:q[1] O *D incrementer
*CAP
1 *1520:A2 0
2 *1518:A2 0.000137255
3 *1668:addr[1] 0.00661089
4 *1216:A2 0
5 *1215:A2 1.19732e-05
6 *1669:q[1] 0.00151391
7 *581:108 0.000280946
8 *581:64 0.00684727
9 *581:55 0.000455484
10 *581:34 0.00188867
11 *1668:addr[1] *1206:A 0.000231225
12 *1668:addr[1] *1668:addr[2] 1.63456e-05
13 *1668:addr[1] *1668:addr[3] 0.00199044
14 *1668:addr[1] *1668:addr[4] 0.00133287
15 *1668:addr[1] *582:81 0.000344707
16 *1668:addr[1] *583:76 0.0025003
17 *1668:addr[1] *585:22 0.000452516
18 *1668:addr[1] *585:43 9.83476e-05
19 *1668:addr[1] *588:36 0
20 *581:34 *1514:B 1.88656e-05
21 *581:34 *1669:rst_n 2.48841e-05
22 *581:34 *585:22 0.000882379
23 *581:34 *587:22 5.97477e-05
24 *581:34 *589:26 0.000277836
25 *581:55 *1216:B1 8.91888e-05
26 *581:55 *1514:B 0.000149201
27 *581:55 *587:22 0.000154968
28 *581:64 *583:39 0.000138089
29 *1163:B *1215:A2 4.77719e-05
30 *1194:B *1668:addr[1] 5.40483e-06
31 *1216:A1 *581:64 4.82919e-05
32 *1216:B2 *581:55 2.57174e-05
33 *1216:B2 *581:64 0.000234674
34 *1218:B1 *581:108 5.05716e-06
35 *1218:C1 *581:64 4.66108e-05
36 *1218:C1 *581:108 3.86439e-05
37 *1451:B1 *1668:addr[1] 0.000125844
38 *1513:B *1668:addr[1] 0.000145874
39 *1518:A1 *1518:A2 8.27712e-05
40 *1518:A1 *581:108 9.50342e-06
41 *1519:A *1518:A2 0.000151603
42 *1524:B *581:108 8.68964e-06
43 *1524:C *1518:A2 0.00019304
44 *1524:C *581:108 5.38986e-05
45 *1527:GATE *581:64 4.82919e-05
46 *1527:GATE *581:108 0
47 *1547:RESET_B *581:55 0.000216175
48 *1547:RESET_B *581:64 0.000288271
49 *1553:RESET_B *1668:addr[1] 0.000123816
50 *1668:addr[0] *1668:addr[1] 0.000574505
51 *1668:addr[7] *1668:addr[1] 0.000166049
52 *1668:addr[8] *1668:addr[1] 0.000356306
53 *1668:addr[9] *1668:addr[1] 0.000611392
54 *1668:addr[10] *1668:addr[1] 0.000181159
55 *1671:A *581:34 1.91843e-05
56 *127:6 *1215:A2 4.66108e-05
57 *432:30 *1668:addr[1] 0.00015879
58 *473:42 *1518:A2 3.51596e-05
59 *535:78 *1668:addr[1] 0.000345988
60 *536:48 *581:108 0
61 *538:25 *1668:addr[1] 0.000764171
62 *569:40 *1668:addr[1] 0.000110612
63 *570:34 *581:34 0.000131174
64 *572:50 *1668:addr[1] 0.0029585
65 *574:28 *1668:addr[1] 0.000605276
66 *574:54 *1668:addr[1] 0.00152676
67 *578:36 *581:34 9.26031e-05
68 *579:52 *581:34 0.00012316
*RES
1 *1669:q[1] *581:34 8.05217 
2 *581:34 *1215:A2 4.05 
3 *581:34 *581:55 9.725 
4 *581:55 *1216:A2 1.6 
5 *581:55 *581:64 6.245 
6 *581:64 *1668:addr[1] 23.8364 
7 *581:64 *581:108 2.2725 
8 *581:108 *1518:A2 7.0725 
9 *581:108 *1520:A2 3.6 
*END

*D_NET *582 0.0480064
*CONN
*I *1217:A2 I *D sky130_fd_sc_hd__a221o_2
*I *1148:A I *D sky130_fd_sc_hd__inv_2
*I *1668:addr[2] I *D tt_rom
*I *1216:B1 I *D sky130_fd_sc_hd__o221a_2
*I *1669:q[2] O *D incrementer
*CAP
1 *1217:A2 0.000346185
2 *1148:A 3.18449e-05
3 *1668:addr[2] 0.000116525
4 *1216:B1 6.58598e-05
5 *1669:q[2] 0.00168168
6 *582:81 0.00422868
7 *582:45 0.0112006
8 *582:43 0.00801463
9 *582:37 0.00126682
10 *582:18 0.000431797
11 *582:14 0.00208506
12 *1148:A *587:38 2.30292e-05
13 *1668:addr[2] *1668:addr[3] 1.3758e-05
14 *1668:addr[2] *1668:addr[5] 0.000176768
15 *582:14 *583:18 3.86648e-06
16 *582:14 *584:24 0.00129731
17 *582:14 *588:18 0.0012426
18 *582:37 *1522:A2 3.09774e-05
19 *582:37 *587:38 7.87469e-05
20 *582:81 *1668:addr[3] 1.51394e-05
21 *582:81 *1668:addr[4] 0.00139555
22 *582:81 *1668:addr[5] 0.00189546
23 uo_out[2] *582:45 0.000428457
24 *1143:A *582:14 2.10152e-05
25 *1157:A *582:14 5.05521e-05
26 *1162:B *582:14 0
27 *1163:B *582:14 0.000140542
28 *1177:B1_N *582:81 9.40578e-05
29 *1180:B *582:81 0
30 *1185:B *582:81 0.000104132
31 *1215:C1 *582:37 0
32 *1216:A1 *1217:A2 0.000147433
33 *1216:A1 *582:14 0.000272085
34 *1216:B2 *1216:B1 3.2472e-05
35 *1216:B2 *1217:A2 7.10077e-05
36 *1216:C1 *582:14 0.000341885
37 *1216:C1 *582:18 7.23602e-05
38 *1216:C1 *582:37 6.68849e-05
39 *1217:B2 *1217:A2 8.26048e-06
40 *1323:B *582:43 0
41 *1328:A *582:43 2.68721e-05
42 *1329:A1 *582:43 0
43 *1329:C1 *582:43 1.95374e-05
44 *1330:A2 *582:43 3.17398e-05
45 *1330:C1 *582:43 0.000158297
46 *1357:A1 *582:81 0
47 *1358:A *582:81 6.02123e-05
48 *1379:A2 *582:81 0.000155258
49 *1435:A2 *582:81 0.000745084
50 *1435:B1 *582:81 7.10348e-05
51 *1435:C1 *582:81 0
52 *1441:B *582:81 0
53 *1480:A2 *582:81 0.00013537
54 *1492:A *582:81 0
55 *1500:A *582:81 7.55391e-05
56 *1513:B *582:43 0.000395742
57 *1514:A *582:43 8.50176e-05
58 *1518:C1 *582:43 0
59 *1523:A_N *582:43 9.30717e-05
60 *1523:D *582:37 4.92062e-05
61 *1523:D *582:43 0.000311817
62 *1577:D *582:81 0
63 *1579:D *582:81 0
64 *1588:D *582:81 9.30717e-05
65 *1595:D *582:81 0
66 *1596:D *582:81 0
67 *1605:A *582:45 0.000807955
68 *1622:A *582:81 0
69 *1642:A *582:37 0
70 *1658:A *582:81 0.000223026
71 *1668:addr[0] *582:81 0.00144916
72 *1668:addr[1] *1668:addr[2] 1.63456e-05
73 *1668:addr[1] *582:81 0.000344707
74 *1668:addr[9] *582:81 0.00271266
75 *123:14 *582:43 0
76 *127:6 *582:14 0.000229541
77 *128:14 *1217:A2 8.7152e-06
78 *151:10 *582:81 0
79 *152:12 *582:81 0.000135533
80 *256:12 *582:43 0
81 *256:21 *582:43 0
82 *271:8 *582:43 0.000136884
83 *284:21 *582:81 0
84 *285:10 *582:81 2.97192e-05
85 *285:16 *582:81 9.07342e-05
86 *307:35 *582:81 9.46248e-05
87 *426:64 *1217:A2 4.66521e-05
88 *426:109 *582:18 9.14049e-05
89 *426:109 *582:37 0.000374807
90 *426:109 *582:43 1.97442e-05
91 *426:122 *582:43 0.000244618
92 *454:14 *582:81 0
93 *456:12 *582:81 0
94 *466:54 *582:37 0
95 *473:42 *1148:A 1.83847e-05
96 *473:42 *582:37 1.34503e-05
97 *479:10 *582:43 2.42236e-05
98 *528:95 *582:81 0
99 *528:99 *582:81 0
100 *536:16 *582:43 0.00011686
101 *536:50 *1217:A2 0
102 *572:50 *582:81 0.000154522
103 *573:82 *582:81 1.96989e-05
104 *577:61 *1217:A2 0.00015639
105 *578:36 *582:14 0.000291666
106 *579:52 *582:14 6.43464e-05
107 *581:55 *1216:B1 8.91888e-05
*RES
1 *1669:q[2] *582:14 33.395 
2 *582:14 *582:18 3.125 
3 *582:18 *1216:B1 4.91625 
4 *582:18 *582:37 7.94 
5 *582:37 *582:43 26.035 
6 *582:43 *582:45 78.765 
7 *582:45 *582:81 48.7354 
8 *582:81 *1668:addr[2] 4.655 
9 *582:37 *1148:A 2.41 
10 *582:14 *1217:A2 10.5087 
*END

*D_NET *583 0.0356099
*CONN
*I *1519:B I *D sky130_fd_sc_hd__xnor2_2
*I *1668:addr[3] I *D tt_rom
*I *1218:A2 I *D sky130_fd_sc_hd__o221a_2
*I *1217:B1 I *D sky130_fd_sc_hd__a221o_2
*I *1669:q[3] O *D incrementer
*CAP
1 *1519:B 0.000175849
2 *1668:addr[3] 0.00315983
3 *1218:A2 5.29917e-05
4 *1217:B1 0
5 *1669:q[3] 0.0011461
6 *583:76 0.00631363
7 *583:39 0.00356151
8 *583:27 0.000601635
9 *583:18 0.00121717
10 *1668:addr[3] *1668:addr[4] 0.00272202
11 *583:18 *584:24 8.24893e-06
12 *583:18 *589:26 0
13 *1171:A *583:76 0.000279592
14 *1188:A2 *1668:addr[3] 0
15 *1189:C *583:76 0.000112466
16 *1190:A *1668:addr[3] 0
17 *1190:B *1668:addr[3] 2.05056e-05
18 *1191:A *1668:addr[3] 0.000132205
19 *1193:A1 *583:76 2.04531e-05
20 *1194:B *583:76 0.000111161
21 *1213:B *1668:addr[3] 5.4737e-05
22 *1213:D *1668:addr[3] 0
23 *1216:A1 *1519:B 0
24 *1216:B2 *1519:B 2.92496e-05
25 *1216:B2 *583:27 0.000124448
26 *1216:B2 *583:39 4.66108e-05
27 *1217:C1 *583:27 2.97204e-05
28 *1218:B2 *1218:A2 6.98797e-05
29 *1218:B2 *583:39 7.67415e-06
30 *1218:B2 *583:76 0.000319649
31 *1220:A2 *583:76 4.30176e-06
32 *1221:C1 *583:76 0.00015896
33 *1235:A1 *583:76 0
34 *1348:B *1668:addr[3] 0.000234669
35 *1348:B *583:76 0.000111285
36 *1395:B1 *583:76 0.000181076
37 *1396:B1 *583:76 2.92086e-05
38 *1399:A *583:76 1.20746e-05
39 *1449:B *583:76 1.47347e-05
40 *1449:D *583:76 1.83847e-05
41 *1451:B1 *583:76 0.00054624
42 *1513:B *1519:B 5.45215e-05
43 *1520:B2 *1519:B 3.09164e-05
44 *1524:A_N *1519:B 4.13462e-05
45 *1524:B *1519:B 0
46 *1527:GATE *583:39 0.000201508
47 *1553:D *583:76 8.12524e-05
48 *1553:RESET_B *583:76 0.00168098
49 *1668:addr[1] *1668:addr[3] 0.00199044
50 *1668:addr[1] *583:76 0.0025003
51 *1668:addr[2] *1668:addr[3] 1.3758e-05
52 *1668:addr[10] *1668:addr[3] 0.00016569
53 *1669:clk *1519:B 8.65905e-05
54 *128:14 *583:18 3.82072e-05
55 *128:14 *583:27 2.98807e-05
56 *130:14 *583:76 3.16608e-05
57 *154:41 *1668:addr[3] 4.33974e-05
58 *156:12 *1668:addr[3] 1.61831e-05
59 *164:10 *583:76 1.05827e-05
60 *208:8 *1668:addr[3] 9.27255e-06
61 *208:8 *583:76 3.52139e-06
62 *378:42 *583:76 0.00180637
63 *426:109 *1519:B 0
64 *432:30 *1668:addr[3] 8.92483e-05
65 *452:22 *1668:addr[3] 0
66 *456:29 *1668:addr[3] 0.000192125
67 *472:8 *583:76 3.11593e-05
68 *531:96 *583:76 0.000441996
69 *569:40 *583:76 0.000176511
70 *571:28 *1668:addr[3] 0.00149499
71 *571:32 *1668:addr[3] 7.96104e-06
72 *574:28 *583:18 0.00122884
73 *574:92 *1668:addr[3] 0
74 *577:26 *583:18 0.000949299
75 *577:61 *583:18 2.06578e-05
76 *577:61 *583:27 3.2723e-05
77 *578:36 *583:18 0.000173082
78 *579:52 *583:18 0.000117689
79 *580:22 *583:18 3.18827e-05
80 *581:64 *583:39 0.000138089
81 *582:14 *583:18 3.86648e-06
82 *582:81 *1668:addr[3] 1.51394e-05
*RES
1 *1669:q[3] *583:18 6.88283 
2 *583:18 *1217:B1 3.6 
3 *583:18 *583:27 1.89 
4 *583:27 *583:39 7.52 
5 *583:39 *1218:A2 2.92 
6 *583:39 *583:76 49.3201 
7 *583:76 *1668:addr[3] 46.5236 
8 *583:27 *1519:B 7.05 
*END

*D_NET *584 0.0365725
*CONN
*I *1623:A I *D sky130_fd_sc_hd__clkdlybuf4s25_1
*I *1668:addr[4] I *D tt_rom
*I *1669:q[4] O *D incrementer
*CAP
1 *1623:A 0.000710277
2 *1668:addr[4] 0.00393282
3 *1669:q[4] 0.00262255
4 *584:44 0.00648468
5 *584:24 0.00588469
6 *584:24 *585:22 8.1196e-06
7 *584:24 *588:18 0.000214977
8 *1162:B *584:24 0
9 *1167:B *1623:A 0
10 *1218:A1 *1623:A 0
11 *1298:A *1623:A 0.000106419
12 *1309:B *1623:A 1.22127e-05
13 *1668:addr[1] *1668:addr[4] 0.00133287
14 *1668:addr[3] *1668:addr[4] 0.00272202
15 *1668:addr[6] *1668:addr[4] 0.000393224
16 *129:21 *1623:A 0
17 *129:21 *584:44 6.15576e-06
18 *469:10 *1623:A 0
19 *469:14 *1623:A 0
20 *473:42 *1623:A 8.65961e-05
21 *535:45 *1668:addr[4] 0.000319048
22 *536:48 *1623:A 0
23 *536:50 *1623:A 0
24 *571:22 *584:24 2.52967e-05
25 *571:28 *1668:addr[4] 0.00231831
26 *571:28 *584:44 0.00119583
27 *572:24 *584:24 0.00174781
28 *572:50 *1668:addr[4] 0.000129859
29 *575:26 *584:24 0.000158819
30 *575:55 *584:24 0.000188047
31 *576:44 *1668:addr[4] 0.000323245
32 *576:44 *584:44 0.000336793
33 *576:105 *1668:addr[4] 0.000707393
34 *578:36 *584:24 0.00103393
35 *579:52 *584:44 0.000131617
36 *580:36 *584:44 0.000737766
37 *582:14 *584:24 0.00129731
38 *582:81 *1668:addr[4] 0.00139555
39 *583:18 *584:24 8.24893e-06
*RES
1 *1669:q[4] *584:24 25.5089 
2 *584:24 *584:44 39.1295 
3 *584:44 *1668:addr[4] 17.1281 
4 *584:24 *1623:A 14.5125 
*END

*D_NET *585 0.0455203
*CONN
*I *1221:A2 I *D sky130_fd_sc_hd__o221a_2
*I *1668:addr[5] I *D tt_rom
*I *1409:B I *D sky130_fd_sc_hd__or3b_2
*I *1415:B I *D sky130_fd_sc_hd__or3b_2
*I *1149:A I *D sky130_fd_sc_hd__inv_2
*I *1206:A I *D sky130_fd_sc_hd__or2_2
*I *1220:B1 I *D sky130_fd_sc_hd__a221o_2
*I *1669:q[5] O *D incrementer
*CAP
1 *1221:A2 5.11874e-05
2 *1668:addr[5] 0.00478551
3 *1409:B 0
4 *1415:B 0
5 *1149:A 0
6 *1206:A 0.000283691
7 *1220:B1 3.66431e-05
8 *1669:q[5] 0.00195974
9 *585:145 0.0068525
10 *585:108 0.00370205
11 *585:85 0.00233251
12 *585:68 0.00112163
13 *585:47 0.000856009
14 *585:43 0.00031865
15 *585:22 0.0021157
16 *1206:A *586:68 8.53113e-06
17 *1221:A2 *1221:B1 1.12643e-05
18 *585:22 *1514:B 0.00131913
19 *585:22 *587:22 2.44838e-05
20 *585:22 *589:26 0.000354076
21 *585:85 *586:58 0.000135539
22 *585:85 *587:119 1.47256e-05
23 *585:108 *1422:B 9.5799e-06
24 *585:108 *589:46 3.42201e-05
25 *602:GATE *585:145 2.01259e-05
26 *1151:A *1668:addr[5] 6.03431e-05
27 *1169:B *1221:A2 0.000101502
28 *1169:B *585:43 8.58512e-05
29 *1210:A1 *585:108 0
30 *1220:B2 *1220:B1 7.73646e-05
31 *1220:B2 *1221:A2 0.00018955
32 *1220:B2 *585:43 0.000196579
33 *1221:C1 *585:47 0.000109786
34 *1222:A2 *1206:A 0
35 *1288:B1 *585:85 4.82919e-05
36 *1301:A2 *585:68 7.03893e-05
37 *1315:A2 *585:68 0
38 *1367:A2 *585:145 0.000414254
39 *1368:B *585:145 0.00094054
40 *1368:C *585:145 4.88478e-05
41 *1409:A *585:108 1.7635e-05
42 *1415:A *585:85 4.35148e-05
43 *1415:A *585:108 4.36422e-06
44 *1418:C_N *585:85 0.00024438
45 *1428:B *585:145 4.48373e-06
46 *1430:A *585:145 0.000160635
47 *1431:B *585:145 0.000113372
48 *1432:B *1668:addr[5] 0.00157639
49 *1436:B1 *585:145 0
50 *1455:A1 *1668:addr[5] 0.000499563
51 *1491:A *1668:addr[5] 4.99619e-05
52 *1492:B *1668:addr[5] 8.78767e-05
53 *1512:B *1668:addr[5] 0
54 *1525:CLK *585:145 0.000113372
55 *1543:CLK *585:108 5.8678e-05
56 *1551:D *1220:B1 7.85951e-05
57 *1551:D *585:43 0.000101778
58 *1555:CLK *1206:A 1.60204e-05
59 *1571:D *585:145 5.69938e-05
60 *1576:D *585:145 0.000293016
61 *1577:D *1668:addr[5] 1.08758e-05
62 *1577:D *585:145 0.000657956
63 *1579:D *585:145 1.91597e-05
64 *1580:D *1668:addr[5] 0
65 *1590:D *585:145 9.5433e-05
66 *1605:A *585:145 8.65961e-05
67 *1614:A *1668:addr[5] 4.21973e-05
68 *1621:A *585:68 0
69 *1624:A *585:108 0
70 *1646:A *585:43 4.82863e-05
71 *1668:addr[0] *1668:addr[5] 1.31342e-05
72 *1668:addr[1] *1206:A 0.000231225
73 *1668:addr[1] *585:22 0.000452516
74 *1668:addr[1] *585:43 9.83476e-05
75 *1668:addr[2] *1668:addr[5] 0.000176768
76 *1668:addr[6] *1668:addr[5] 1.41131e-05
77 *1671:A *585:22 5.18735e-06
78 *98:28 *585:145 9.27255e-06
79 *130:14 *585:43 5.04853e-05
80 *130:14 *585:47 6.51029e-05
81 *133:48 *585:85 0.000100933
82 *250:20 *585:68 0.000149437
83 *288:38 *585:145 0.000241863
84 *347:12 *585:108 0.000155036
85 *347:31 *585:108 2.05839e-05
86 *424:20 *585:145 3.03775e-05
87 *425:27 *585:145 0.000308226
88 *425:42 *585:145 0.000608349
89 *425:54 *585:145 3.35473e-05
90 *433:152 *585:145 0.000267251
91 *433:160 *585:108 2.75145e-05
92 *433:160 *585:145 2.16917e-05
93 *434:10 *585:145 0.000346507
94 *440:16 *585:108 0.000717654
95 *441:37 *585:108 9.60582e-07
96 *527:8 *1668:addr[5] 2.65086e-05
97 *528:112 *1668:addr[5] 2.10034e-05
98 *535:78 *1206:A 0.000301815
99 *535:78 *585:68 0.000227779
100 *537:160 *585:47 8.50428e-05
101 *537:160 *585:68 0.000124681
102 *538:10 *585:47 0
103 *538:10 *585:68 0
104 *566:37 *1668:addr[5] 0.00231177
105 *567:27 *1668:addr[5] 5.5185e-05
106 *571:22 *585:22 7.61921e-05
107 *574:28 *585:22 0.000189921
108 *574:28 *585:43 3.09608e-05
109 *575:26 *585:22 3.1407e-05
110 *577:26 *585:22 0
111 *579:52 *585:22 0.00149155
112 *580:22 *585:22 0
113 *580:36 *585:22 0.000442487
114 *581:34 *585:22 0.000882379
115 *582:81 *1668:addr[5] 0.00189546
116 *584:24 *585:22 8.1196e-06
*RES
1 *1669:q[5] *585:22 9.72 
2 *585:22 *1220:B1 5.0975 
3 *585:22 *585:43 5.73703 
4 *585:43 *585:47 5.2925 
5 *585:47 *1206:A 5.94123 
6 *585:47 *585:68 10.9475 
7 *585:68 *1149:A 1.6 
8 *585:68 *585:85 14.29 
9 *585:85 *1415:B 1.6 
10 *585:85 *585:108 10.6911 
11 *585:108 *1409:B 1.6 
12 *585:108 *585:145 49.895 
13 *585:145 *1668:addr[5] 45.1947 
14 *585:43 *1221:A2 3.43 
*END

*D_NET *586 0.0281397
*CONN
*I *1413:S1 I *D sky130_fd_sc_hd__mux4_2
*I *1415:C_N I *D sky130_fd_sc_hd__or3b_2
*I *1406:S1 I *D sky130_fd_sc_hd__mux4_2
*I *1409:C_N I *D sky130_fd_sc_hd__or3b_2
*I *1211:A1 I *D sky130_fd_sc_hd__o2111ai_2
*I *1448:A I *D sky130_fd_sc_hd__and2_2
*I *1214:B I *D sky130_fd_sc_hd__and2b_2
*I *1219:A_N I *D sky130_fd_sc_hd__nand2b_2
*I *1206:B I *D sky130_fd_sc_hd__or2_2
*I *1514:B I *D sky130_fd_sc_hd__xor2_2
*I *1669:q[6] O *D incrementer
*CAP
1 *1413:S1 9.47077e-05
2 *1415:C_N 2.2266e-05
3 *1406:S1 0.000106637
4 *1409:C_N 0.000253834
5 *1211:A1 0
6 *1448:A 0.000312221
7 *1214:B 4.84727e-05
8 *1219:A_N 0.00038045
9 *1206:B 2.30055e-05
10 *1514:B 0.00297775
11 *1669:q[6] 0.00168951
12 *586:147 0.00166795
13 *586:109 0.000366766
14 *586:103 0.00198766
15 *586:68 0.000453671
16 *586:64 0.000530067
17 *586:58 0.00121372
18 *586:54 0.000339644
19 *586:50 0.00154362
20 *1214:B *587:53 0.000272978
21 *1409:C_N *1412:A 0
22 *1448:A *1211:A2 3.26889e-05
23 *1448:A *1448:B 0
24 *1448:A *587:76 0.000133541
25 *1514:B *1516:A2 0.00017135
26 *1514:B *1516:B1 0.000127447
27 *1514:B *1669:rst_n 0.000233329
28 *1514:B *587:22 0.000578176
29 *1514:B *588:18 1.58707e-05
30 *1514:B *589:26 0.00147272
31 *586:58 *587:119 6.28843e-05
32 *586:64 *587:57 0
33 *586:103 *587:72 0.000214142
34 *586:109 *1211:A2 4.99619e-05
35 *586:109 *587:76 1.12578e-05
36 *586:147 *594:10 1.59194e-05
37 *1138:A *1514:B 0.000201508
38 *1143:A *1514:B 0.000171563
39 *1158:C *1514:B 7.23602e-05
40 *1159:B1 *1514:B 0
41 *1161:B *1514:B 9.29751e-06
42 *1206:A *586:68 8.53113e-06
43 *1211:D1 *586:103 2.68464e-05
44 *1214:A_N *1206:B 4.66108e-05
45 *1214:A_N *1219:A_N 6.36331e-05
46 *1219:B *1219:A_N 0
47 *1222:A2 *1219:A_N 0.000237283
48 *1222:A2 *586:64 0
49 *1222:A2 *586:68 0
50 *1222:B1 *1219:A_N 4.77757e-05
51 *1251:A *586:147 3.86814e-05
52 *1251:B *586:147 3.31204e-05
53 *1251:C *586:147 0
54 *1253:A *1409:C_N 0
55 *1253:C *1409:C_N 0.000162047
56 *1253:C *586:147 0.000189039
57 *1272:A *586:147 0.000108357
58 *1272:B *586:147 8.65961e-05
59 *1272:C *586:147 2.53366e-05
60 *1310:A *586:50 2.75229e-05
61 *1318:A_N *586:50 4.82919e-05
62 *1318:B *586:50 6.97034e-05
63 *1321:A *586:50 2.75229e-05
64 *1321:B *586:50 2.05056e-05
65 *1321:C *586:50 8.65961e-05
66 *1334:A3 *1514:B 4.43871e-06
67 *1336:B *1514:B 7.46533e-05
68 *1337:A2 *1514:B 0
69 *1406:A0 *586:147 9.31326e-05
70 *1406:A1 *1406:S1 8.40213e-05
71 *1407:B *1406:S1 0.000137008
72 *1409:A *1409:C_N 0
73 *1412:B *1409:C_N 0.000330827
74 *1413:A2 *1413:S1 2.16917e-05
75 *1413:A2 *586:50 4.99619e-05
76 *1413:A3 *1413:S1 8.46717e-05
77 *1413:S0 *586:54 0.000162325
78 *1415:A *1415:C_N 4.82919e-05
79 *1418:B *586:58 0
80 *1418:C_N *586:54 2.96553e-05
81 *1418:C_N *586:58 3.27862e-05
82 *1421:B1_N *586:147 1.41634e-05
83 *1423:A2 *586:147 0.000114118
84 *1423:B1 *1409:C_N 2.61104e-05
85 *1446:B2 *1409:C_N 4.76263e-05
86 *1487:S *586:147 0.000112123
87 *1527:CLK *1214:B 0.000272978
88 *1527:CLK *1448:A 6.77185e-05
89 *1530:D *1409:C_N 7.81221e-05
90 *1537:D *586:147 4.99619e-05
91 *1542:D *586:50 7.82691e-05
92 *1552:RESET_B *1219:A_N 0.000222416
93 *1555:CLK *1219:A_N 0
94 *1555:CLK *586:64 0.00030788
95 *1555:CLK *586:68 6.83447e-05
96 *1555:D *586:64 1.48666e-05
97 *1582:D *1448:A 5.53249e-06
98 *1624:A *1409:C_N 0
99 *1637:A *1514:B 0.000116158
100 *1671:A *1514:B 9.58678e-06
101 *123:14 *1514:B 0
102 *124:10 *1514:B 0.000106393
103 *172:22 *1448:A 0
104 *172:22 *586:147 0.000690853
105 *175:8 *1219:A_N 0.000201503
106 *250:12 *586:64 6.19517e-05
107 *251:43 *1514:B 1.65192e-05
108 *251:52 *1514:B 6.65717e-05
109 *256:12 *586:50 0.000665834
110 *338:10 *586:147 0
111 *339:20 *586:147 0.000329467
112 *433:168 *1448:A 5.37074e-05
113 *433:168 *586:109 1.85674e-05
114 *433:168 *586:147 0.000197175
115 *435:61 *1413:S1 2.20014e-05
116 *435:61 *586:54 7.09865e-05
117 *439:32 *1409:C_N 5.23362e-05
118 *441:37 *586:54 0
119 *444:10 *586:54 1.17666e-05
120 *449:27 *586:147 0.000163175
121 *465:16 *1514:B 0.000393829
122 *466:20 *1514:B 6.56448e-06
123 *467:19 *1514:B 0.000218677
124 *474:10 *586:103 7.26176e-06
125 *481:8 *1514:B 0
126 *537:160 *586:64 0
127 *538:66 *586:54 0.000194258
128 *538:66 *586:58 0.00046511
129 *538:66 *586:64 0
130 *548:26 *586:147 8.63479e-05
131 *579:52 *1219:A_N 4.89295e-05
132 *579:52 *1514:B 9.30148e-05
133 *579:67 *1448:A 0.000176931
134 *580:72 *1448:A 0.0001249
135 *581:34 *1514:B 1.88656e-05
136 *581:55 *1514:B 0.000149201
137 *585:22 *1514:B 0.00131913
138 *585:85 *586:58 0.000135539
*RES
1 *1669:q[6] *1514:B 38.6497 
2 *1514:B *586:50 21.4275 
3 *586:50 *586:54 6.44 
4 *586:54 *586:58 7.46 
5 *586:58 *586:64 8.615 
6 *586:64 *586:68 2.87 
7 *586:68 *1206:B 2.05 
8 *586:68 *1219:A_N 12.95 
9 *586:64 *1214:B 6.12 
10 *586:58 *586:103 7.695 
11 *586:103 *586:109 1.77 
12 *586:109 *1448:A 12.365 
13 *586:109 *1211:A1 1.6 
14 *586:103 *586:147 32.43 
15 *586:147 *1409:C_N 10.08 
16 *586:147 *1406:S1 5.775 
17 *586:54 *1415:C_N 4.05 
18 *586:50 *1413:S1 3.43 
*END

*D_NET *587 0.0262507
*CONN
*I *1516:A2 I *D sky130_fd_sc_hd__o22a_2
*I *1522:A2 I *D sky130_fd_sc_hd__a221oi_2
*I *1207:A I *D sky130_fd_sc_hd__or2_2
*I *1210:B1 I *D sky130_fd_sc_hd__o21ai_2
*I *1418:A I *D sky130_fd_sc_hd__or3b_2
*I *1211:A2 I *D sky130_fd_sc_hd__o2111ai_2
*I *1412:A I *D sky130_fd_sc_hd__nand2_2
*I *1448:B I *D sky130_fd_sc_hd__and2_2
*I *1222:A1 I *D sky130_fd_sc_hd__a21oi_2
*I *1221:B1 I *D sky130_fd_sc_hd__o221a_2
*I *1669:q[7] O *D incrementer
*CAP
1 *1516:A2 0.000282651
2 *1522:A2 1.47058e-05
3 *1207:A 0.000263582
4 *1210:B1 0.000102846
5 *1418:A 0
6 *1211:A2 1.60329e-05
7 *1412:A 0.000860703
8 *1448:B 0.000257669
9 *1222:A1 5.26016e-05
10 *1221:B1 0.000173209
11 *1669:q[7] 0.00276009
12 *587:119 0.000296432
13 *587:76 0.00140012
14 *587:72 0.000682762
15 *587:68 0.000676006
16 *587:57 0.000241077
17 *587:53 0.000814522
18 *587:38 0.00197633
19 *587:26 0.00150301
20 *587:22 0.00318782
21 *1516:A2 *1516:B1 5.83121e-06
22 *587:22 *1669:rst_n 2.36133e-05
23 *587:22 *1671:B 6.17032e-05
24 *587:22 *588:18 0.000236844
25 *587:22 *589:26 0.000119874
26 *587:26 *588:22 8.88799e-05
27 *587:38 *589:26 1.7635e-05
28 *1137:A *1221:B1 0
29 *1148:A *587:38 2.30292e-05
30 *1169:B *1221:B1 1.20741e-05
31 *1211:D1 *587:72 2.937e-05
32 *1214:B *587:53 0.000272978
33 *1221:A2 *1221:B1 1.12643e-05
34 *1221:B2 *1221:B1 0.000303214
35 *1222:A2 *1207:A 0
36 *1222:A2 *587:57 0.000112743
37 *1222:B1 *1207:A 9.04308e-05
38 *1251:C *1412:A 0
39 *1406:A3 *1412:A 3.60922e-05
40 *1409:C_N *1412:A 0
41 *1418:C_N *587:119 4.77757e-05
42 *1423:B1 *1412:A 0
43 *1445:A1 *1412:A 1.07797e-05
44 *1445:B1 *1412:A 8.54361e-05
45 *1448:A *1211:A2 3.26889e-05
46 *1448:A *1448:B 0
47 *1448:A *587:76 0.000133541
48 *1513:B *587:38 2.72056e-05
49 *1514:B *1516:A2 0.00017135
50 *1514:B *587:22 0.000578176
51 *1516:A1 *1516:A2 0.000160635
52 *1519:A *587:38 0.000303575
53 *1520:B2 *587:38 3.67779e-05
54 *1522:B2 *1516:A2 7.68414e-06
55 *1523:D *587:26 4.85494e-05
56 *1523:D *587:38 7.67415e-06
57 *1527:CLK *1207:A 0.000127326
58 *1527:CLK *587:38 6.1357e-05
59 *1527:CLK *587:53 0.000242967
60 *1530:D *1412:A 0
61 *1555:CLK *1221:B1 0
62 *1581:D *1412:A 1.52184e-05
63 *1582:D *587:76 5.37091e-05
64 *1642:A *1516:A2 4.99031e-05
65 *1669:clk *587:22 5.56285e-05
66 *1669:clk *587:38 0.000108761
67 *1671:A *587:22 7.58388e-05
68 *122:10 *587:38 0.000496011
69 *122:25 *587:38 0.000116869
70 *132:6 *587:38 2.01259e-05
71 *133:48 *1210:B1 0.000313828
72 *133:48 *587:119 0.000197724
73 *172:22 *1448:B 0
74 *175:25 *1207:A 4.66108e-05
75 *175:25 *587:68 0
76 *250:12 *587:68 4.94326e-05
77 *251:43 *1516:A2 9.5433e-05
78 *332:34 *1412:A 7.75231e-05
79 *345:12 *1210:B1 0.000207484
80 *345:12 *587:119 5.06989e-05
81 *433:160 *1412:A 0.000352862
82 *433:168 *1412:A 0.000118622
83 *433:168 *587:76 9.94996e-05
84 *439:48 *1412:A 7.3664e-05
85 *466:20 *587:22 0.000126159
86 *472:27 *1207:A 1.42807e-05
87 *473:42 *587:38 2.8585e-06
88 *474:10 *587:72 0.000197826
89 *533:91 *1222:A1 0.000122801
90 *537:160 *1221:B1 0.000407629
91 *538:66 *587:119 3.47498e-05
92 *570:34 *587:22 0.000269913
93 *570:47 *1516:A2 3.20382e-05
94 *570:47 *587:22 0.000270104
95 *570:78 *1412:A 0.00038879
96 *571:22 *587:22 0.00013617
97 *572:24 *587:22 0.00174977
98 *579:52 *587:22 2.99518e-06
99 *579:67 *1448:B 0
100 *579:80 *1412:A 2.59981e-05
101 *580:22 *587:22 0
102 *581:34 *587:22 5.97477e-05
103 *581:55 *587:22 0.000154968
104 *582:37 *1522:A2 3.09774e-05
105 *582:37 *587:38 7.87469e-05
106 *585:22 *587:22 2.44838e-05
107 *585:85 *587:119 1.47256e-05
108 *586:58 *587:119 6.28843e-05
109 *586:64 *587:57 0
110 *586:103 *587:72 0.000214142
111 *586:109 *1211:A2 4.99619e-05
112 *586:109 *587:76 1.12578e-05
*RES
1 *1669:q[7] *587:22 21.834 
2 *587:22 *587:26 4.52 
3 *587:26 *587:38 21.655 
4 *587:38 *1221:B1 10.6587 
5 *587:38 *587:53 6.315 
6 *587:53 *587:57 3.635 
7 *587:57 *1222:A1 4.74 
8 *587:57 *587:68 1.635 
9 *587:68 *587:72 9.35 
10 *587:72 *587:76 3.915 
11 *587:76 *1448:B 9.275 
12 *587:76 *1412:A 20.45 
13 *587:72 *1211:A2 2.41 
14 *587:68 *587:119 6.68 
15 *587:119 *1418:A 1.6 
16 *587:119 *1210:B1 5.2075 
17 *587:53 *1207:A 9.35 
18 *587:26 *1522:A2 1.96 
19 *587:22 *1516:A2 9.36 
*END

*D_NET *588 0.0199249
*CONN
*I *1516:B1 I *D sky130_fd_sc_hd__o22a_2
*I *1522:B1 I *D sky130_fd_sc_hd__a221oi_2
*I *1211:B1 I *D sky130_fd_sc_hd__o2111ai_2
*I *1208:A1 I *D sky130_fd_sc_hd__a32o_2
*I *1403:B I *D sky130_fd_sc_hd__and2b_2
*I *1402:A_N I *D sky130_fd_sc_hd__and2b_2
*I *1669:q[8] O *D incrementer
*CAP
1 *1516:B1 0.000271744
2 *1522:B1 0
3 *1211:B1 0.000109023
4 *1208:A1 0.000144382
5 *1403:B 5.23856e-05
6 *1402:A_N 0
7 *1669:q[8] 0.00251327
8 *588:54 0.000253405
9 *588:43 0.000139114
10 *588:36 0.00168776
11 *588:22 0.00170757
12 *588:18 0.00289155
13 *1208:A1 *1208:A2 8.48192e-05
14 *1208:A1 *1402:B 1.70935e-05
15 *1211:B1 *1208:A2 2.25119e-05
16 *1211:B1 *1402:B 1.80732e-05
17 *1211:B1 *589:46 5.53249e-06
18 *1211:B1 *589:48 7.48884e-05
19 *588:18 *589:26 6.30563e-06
20 *588:36 *589:26 0.000401991
21 *1141:A *588:18 8.94519e-05
22 *1159:B1 *588:18 6.83488e-05
23 *1161:B *588:18 2.65814e-06
24 *1208:B1 *1208:A1 5.16348e-05
25 *1404:A0 *1403:B 0.000198945
26 *1404:A0 *588:43 2.16833e-05
27 *1513:B *588:36 0
28 *1514:B *1516:B1 0.000127447
29 *1514:B *588:18 1.58707e-05
30 *1516:A2 *1516:B1 5.83121e-06
31 *1516:B2 *1516:B1 5.90151e-05
32 *1521:B *1516:B1 1.05827e-05
33 *1521:B *588:18 8.7152e-06
34 *1522:B2 *588:36 2.8531e-05
35 *1522:C1 *588:22 4.82919e-05
36 *1523:B *1516:B1 1.52352e-05
37 *1523:D *588:22 0.000119756
38 *1527:CLK *1211:B1 0
39 *1546:RESET_B *588:18 7.32259e-05
40 *1548:CLK *588:18 0.000237213
41 *1548:D *588:18 2.30998e-05
42 *1548:RESET_B *588:18 0.000213938
43 *1637:A *588:18 5.92269e-05
44 *1637:A *588:22 4.80285e-05
45 *1642:A *588:36 4.10051e-05
46 *1668:addr[1] *588:36 0
47 *175:25 *1208:A1 0
48 *175:25 *588:36 1.00941e-05
49 *465:16 *588:18 0.000501598
50 *473:10 *1516:B1 3.6227e-05
51 *473:42 *588:22 0.000127938
52 *533:91 *1403:B 0.000186528
53 *533:91 *588:43 0.000234784
54 *535:78 *588:36 0.000460482
55 *538:25 *588:36 0
56 *570:64 *588:36 0.00301919
57 *571:22 *588:18 0.000270017
58 *578:36 *588:18 0.00129441
59 *580:47 *1208:A1 2.97004e-06
60 *580:72 *1208:A1 2.81644e-05
61 *582:14 *588:18 0.0012426
62 *584:24 *588:18 0.000214977
63 *587:22 *588:18 0.000236844
64 *587:26 *588:22 8.88799e-05
*RES
1 *1669:q[8] *588:18 49.5233 
2 *588:18 *588:22 5.21 
3 *588:22 *588:36 10.3028 
4 *588:36 *1402:A_N 1.6 
5 *588:36 *588:43 2.175 
6 *588:43 *1403:B 3.79 
7 *588:43 *588:54 2 
8 *588:54 *1208:A1 6.255 
9 *588:54 *1211:B1 5.745 
10 *588:22 *1522:B1 1.6 
11 *588:18 *1516:B1 9.03 
*END

*D_NET *589 0.0187582
*CONN
*I *1515:B1 I *D sky130_fd_sc_hd__a221o_2
*I *1517:B1 I *D sky130_fd_sc_hd__o22a_2
*I *1211:C1 I *D sky130_fd_sc_hd__o2111ai_2
*I *1403:A_N I *D sky130_fd_sc_hd__and2b_2
*I *1208:A2 I *D sky130_fd_sc_hd__a32o_2
*I *1402:B I *D sky130_fd_sc_hd__and2b_2
*I *1669:q[9] O *D incrementer
*CAP
1 *1515:B1 7.57398e-05
2 *1517:B1 0
3 *1211:C1 0
4 *1403:A_N 0
5 *1208:A2 0.00022951
6 *1402:B 5.26943e-05
7 *1669:q[9] 0.00214724
8 *589:61 0.000316229
9 *589:48 0.00018941
10 *589:46 0.00229276
11 *589:32 0.00237992
12 *589:26 0.00236013
13 *1208:A1 *1208:A2 8.48192e-05
14 *1208:A1 *1402:B 1.70935e-05
15 *1208:B1 *1208:A2 4.9968e-05
16 *1210:A1 *589:46 0.000162618
17 *1211:B1 *1208:A2 2.25119e-05
18 *1211:B1 *1402:B 1.80732e-05
19 *1211:B1 *589:46 5.53249e-06
20 *1211:B1 *589:48 7.48884e-05
21 *1310:B *589:46 0
22 *1404:A0 *1208:A2 0
23 *1513:B *1515:B1 0.00016881
24 *1513:B *589:26 0.000382794
25 *1514:B *589:26 0.00147272
26 *1515:A2 *589:32 1.08758e-05
27 *1515:A2 *589:46 1.7635e-05
28 *1515:C1 *1515:B1 2.49909e-05
29 *1517:B2 *589:32 2.02929e-05
30 *1517:B2 *589:46 4.66108e-05
31 *1518:C1 *1515:B1 0.000176647
32 *1518:C1 *589:26 0.000309304
33 *1520:B2 *589:26 1.81619e-05
34 *1521:B *589:26 7.94617e-05
35 *1523:A_N *1515:B1 4.66108e-05
36 *1523:C *589:32 0.000113809
37 *1523:D *589:32 4.66108e-05
38 *1524:C *589:32 0.000163199
39 *1527:CLK *1208:A2 0
40 *1527:CLK *589:46 0
41 *1603:A *589:46 0.000196596
42 *1603:A *589:48 0.000116165
43 *133:18 *589:46 0.000668735
44 *175:25 *589:48 0
45 *176:12 *1208:A2 4.66108e-05
46 *462:16 *589:46 0
47 *533:91 *589:61 0.000142842
48 *533:150 *589:46 0
49 *538:66 *589:46 0
50 *570:64 *589:26 2.67069e-05
51 *570:64 *589:46 0
52 *571:22 *589:26 8.46807e-06
53 *574:28 *589:26 0
54 *579:52 *589:26 0.000620997
55 *580:22 *589:26 0.0021415
56 *581:34 *589:26 0.000277836
57 *583:18 *589:26 0
58 *585:22 *589:26 0.000354076
59 *585:108 *589:46 3.42201e-05
60 *587:22 *589:26 0.000119874
61 *587:38 *589:26 1.7635e-05
62 *588:18 *589:26 6.30563e-06
63 *588:36 *589:26 0.000401991
*RES
1 *1669:q[9] *589:26 14.3322 
2 *589:26 *589:32 5.48 
3 *589:32 *589:46 10.0353 
4 *589:46 *589:48 1.635 
5 *589:48 *1402:B 4.47 
6 *589:48 *589:61 3.485 
7 *589:61 *1208:A2 9.215 
8 *589:61 *1403:A_N 1.6 
9 *589:46 *1211:C1 3.6 
10 *589:32 *1517:B1 1.6 
11 *589:26 *1515:B1 6.195 
*END

*D_NET *590 0.000514852
*CONN
*I *1671:B I *D sky130_fd_sc_hd__and2_1
*I *1672:Y O *D sky130_fd_sc_hd__nand4_1
*CAP
1 *1671:B 0.00012493
2 *1672:Y 0.00012493
3 *466:20 *1671:B 0.000203288
4 *587:22 *1671:B 6.17032e-05
*RES
1 *1672:Y *1671:B 10.065 
*END

*D_NET *591 0.00121066
*CONN
*I *1669:rst_n I *D incrementer
*I *1671:X O *D sky130_fd_sc_hd__and2_1
*CAP
1 *1669:rst_n 0.000307664
2 *1671:X 0.000307664
3 *1514:B *1669:rst_n 0.000233329
4 *1669:clk *1669:rst_n 0
5 *466:20 *1669:rst_n 0.000131577
6 *570:34 *1669:rst_n 0.000143194
7 *579:52 *1669:rst_n 3.87391e-05
8 *581:34 *1669:rst_n 2.48841e-05
9 *587:22 *1669:rst_n 2.36133e-05
*RES
1 *1671:X *1669:rst_n 9.49487 
*END

*D_NET *592 0.0013138
*CONN
*I *1529:D I *D sky130_fd_sc_hd__dfxtp_2
*I *1202:Y O *D sky130_fd_sc_hd__inv_2
*CAP
1 *1529:D 9.10308e-05
2 *1202:Y 9.10308e-05
3 *1202:A *1529:D 4.66108e-05
4 *1429:B *1529:D 0.000579203
5 *433:42 *1529:D 0.000505921
*RES
1 *1202:Y *1529:D 8.51375 
*END

*D_NET *593 0.00322895
*CONN
*I *1604:A I *D sky130_fd_sc_hd__buf_2
*I *1203:A I *D sky130_fd_sc_hd__or2_2
*I *1529:Q O *D sky130_fd_sc_hd__dfxtp_2
*CAP
1 *1604:A 0.000295695
2 *1203:A 9.89525e-05
3 *1529:Q 0.000694226
4 *593:8 0.00108887
5 uo_out[3] *1604:A 0.000107786
6 *1203:B *1203:A 2.23203e-05
7 *1265:B *1604:A 9.43301e-05
8 *1265:C *1604:A 0.000100149
9 *1429:B *1203:A 7.87426e-05
10 *1429:B *1604:A 8.59365e-05
11 *1429:B *593:8 0.00011653
12 *1436:B2 *1203:A 0.000109532
13 *1436:B2 *1604:A 5.02217e-05
14 *1529:CLK *593:8 1.83756e-05
15 *433:42 *593:8 0.000218991
16 *434:74 *1203:A 0
17 *450:29 *1604:A 4.82863e-05
*RES
1 *1529:Q *593:8 12.33 
2 *593:8 *1203:A 6 
3 *593:8 *1604:A 10.035 
*END

*D_NET *594 0.00188518
*CONN
*I *1422:A I *D sky130_fd_sc_hd__or2_2
*I *1631:A I *D sky130_fd_sc_hd__dlygate4sd3_1
*I *1582:Q O *D sky130_fd_sc_hd__dfxtp_2
*CAP
1 *1422:A 9.88164e-05
2 *1631:A 2.4121e-05
3 *1582:Q 0.000221851
4 *594:10 0.000344788
5 *1249:A1 *1422:A 0.00010978
6 *1249:A1 *1631:A 8.23457e-05
7 *1249:A2 *1631:A 4.66108e-05
8 *1250:B *594:10 2.23407e-05
9 *1250:C *594:10 0.000154954
10 *1421:B1_N *594:10 3.96153e-05
11 *1423:A2 *594:10 5.87882e-05
12 *1445:A1 *594:10 0
13 *1487:A0 *1422:A 1.91597e-05
14 *1487:A0 *594:10 0.000283324
15 *1487:S *594:10 5.57736e-05
16 *1530:CLK *1422:A 4.00541e-06
17 *439:48 *1422:A 0.000267249
18 *439:48 *1631:A 3.57349e-05
19 *586:147 *594:10 1.59194e-05
*RES
1 *1582:Q *594:10 11.06 
2 *594:10 *1631:A 2.395 
3 *594:10 *1422:A 4.48 
*END

*D_NET *595 0.003749
*CONN
*I *1422:B I *D sky130_fd_sc_hd__or2_2
*I *1632:A I *D sky130_fd_sc_hd__dlygate4sd3_1
*I *1153:A I *D sky130_fd_sc_hd__inv_2
*I *1581:Q O *D sky130_fd_sc_hd__dfxtp_2
*CAP
1 *1422:B 0.000594801
2 *1632:A 0
3 *1153:A 0.000292154
4 *1581:Q 0.000211383
5 *595:12 0.000292154
6 *595:10 0.000806183
7 *1370:A2 *1153:A 0.000124895
8 *1370:B1 *1153:A 7.29911e-05
9 *1409:A *1422:B 8.58651e-05
10 *1412:B *1422:B 0.000154314
11 *1423:A1 *1153:A 0.000310776
12 *1423:B1 *1422:B 3.52139e-06
13 *1446:B2 *1422:B 0
14 *1446:B2 *595:10 0
15 *1486:A0 *595:10 0
16 *1530:CLK *1422:B 0.000307049
17 *300:22 *1153:A 0.00014259
18 *332:34 *595:10 0.000164874
19 *350:12 *595:10 1.92979e-05
20 *439:48 *1422:B 0.00015657
21 *585:108 *1422:B 9.5799e-06
*RES
1 *1581:Q *595:10 6.465 
2 *595:10 *595:12 2 
3 *595:12 *1153:A 8.755 
4 *595:12 *1632:A 1.6 
5 *595:10 *1422:B 13.5 
*END
