*SPEF "ieee 1481-1999"
*DESIGN "tt_um_rebelmike_asic_odyssey"
*DATE "14:27:01 Monday May 11, 2026"
*VENDOR "The OpenROAD Project"
*PROGRAM "OpenROAD"
*VERSION "dcf36133a369abc8f3c5e5738cd4d82e4903c0e0"
*DESIGN_FLOW "NAME_SCOPE LOCAL" "PIN_CAP NONE"
*DIVIDER /
*DELIMITER :
*BUS_DELIMITER []
*T_UNIT 1 NS
*C_UNIT 1 PF
*R_UNIT 1 OHM
*L_UNIT 1 HENRY

*NAME_MAP
*3 clk
*4 ena
*5 rst_n
*6 ui_in[0]
*7 ui_in[1]
*8 ui_in[2]
*9 ui_in[3]
*10 ui_in[4]
*11 ui_in[5]
*12 ui_in[6]
*13 ui_in[7]
*14 uio_in[0]
*15 uio_in[1]
*16 uio_in[2]
*17 uio_in[3]
*18 uio_in[4]
*19 uio_in[5]
*20 uio_in[6]
*21 uio_in[7]
*22 net
*23 net64
*24 net65
*25 net66
*26 net67
*27 net68
*28 net69
*29 net78
*30 net70
*31 net71
*32 net72
*33 net73
*34 net74
*35 net75
*36 net76
*37 uio_out[7]
*38 uo_out[0]
*39 uo_out[1]
*40 uo_out[2]
*41 uo_out[3]
*42 uo_out[4]
*43 uo_out[5]
*44 uo_out[6]
*45 uo_out[7]
*46 _000_
*47 _001_
*48 _002_
*49 _003_
*50 _004_
*51 _005_
*52 _006_
*53 _007_
*54 _008_
*55 _009_
*56 _010_
*57 _011_
*58 _012_
*59 _013_
*60 _014_
*61 _015_
*62 _016_
*63 _017_
*64 _018_
*65 _019_
*66 _020_
*67 _021_
*68 _022_
*69 _023_
*70 _024_
*71 _025_
*72 _026_
*73 _027_
*74 _028_
*75 _029_
*76 _030_
*77 _031_
*78 _032_
*79 _033_
*80 _034_
*81 _035_
*82 _036_
*83 _037_
*84 _038_
*85 _039_
*86 _040_
*87 _041_
*88 _042_
*89 _043_
*90 _044_
*91 _045_
*92 _046_
*93 _047_
*94 _048_
*95 _049_
*96 _050_
*97 _051_
*98 _052_
*99 _053_
*100 _054_
*101 _055_
*102 _056_
*103 _057_
*104 _058_
*105 _059_
*106 _060_
*107 _061_
*108 _062_
*109 _063_
*110 _064_
*111 _065_
*112 _066_
*113 _067_
*114 _068_
*115 _069_
*116 _070_
*117 _071_
*118 _072_
*119 _073_
*120 _074_
*121 _075_
*122 _076_
*123 _077_
*124 _078_
*125 _079_
*126 _080_
*127 _081_
*128 _082_
*129 _083_
*130 _084_
*131 _085_
*132 _086_
*133 _087_
*134 _088_
*135 _089_
*136 _090_
*137 _091_
*138 _092_
*139 _093_
*140 _094_
*141 _095_
*142 _096_
*143 _097_
*144 _098_
*145 _099_
*146 _100_
*147 _101_
*148 _102_
*149 _103_
*150 _104_
*151 _105_
*152 _106_
*153 _107_
*154 _108_
*155 _109_
*156 _110_
*157 _111_
*158 _112_
*159 _113_
*160 _114_
*161 _115_
*162 _116_
*163 _117_
*164 _118_
*165 _119_
*166 _120_
*167 _121_
*168 _122_
*169 _123_
*170 _124_
*171 _125_
*172 _126_
*173 _127_
*174 _128_
*175 _129_
*176 _130_
*177 _131_
*178 _132_
*179 _133_
*180 _134_
*181 _135_
*182 _136_
*183 _137_
*184 _138_
*185 _139_
*186 _140_
*187 _141_
*188 _142_
*189 _143_
*190 _144_
*191 _145_
*192 _146_
*193 _147_
*194 _148_
*195 _149_
*196 _150_
*197 _151_
*198 _152_
*199 _153_
*200 _154_
*201 _155_
*202 _156_
*203 _157_
*204 _158_
*205 _159_
*206 _160_
*207 _161_
*208 _162_
*209 _163_
*210 _164_
*211 _165_
*212 _166_
*213 _167_
*214 _168_
*215 _169_
*216 _170_
*217 _171_
*218 _172_
*219 _173_
*220 _174_
*221 _175_
*222 _176_
*223 _177_
*224 _178_
*225 _179_
*226 _180_
*227 _181_
*228 _182_
*229 _183_
*230 _184_
*231 _185_
*232 _186_
*233 _187_
*234 _188_
*235 _189_
*236 _190_
*237 _191_
*238 _192_
*239 _193_
*240 _194_
*241 _195_
*242 _196_
*243 _197_
*244 _198_
*245 _199_
*246 _200_
*247 _201_
*248 _202_
*249 _203_
*250 _204_
*251 _205_
*252 _206_
*253 _207_
*254 _208_
*255 _209_
*256 _210_
*257 _211_
*258 _212_
*259 _213_
*260 _214_
*261 _215_
*262 _216_
*263 _217_
*264 _218_
*265 _219_
*266 _220_
*267 _221_
*268 _222_
*269 _223_
*270 _224_
*271 _225_
*272 _226_
*273 _227_
*274 _228_
*275 _229_
*276 _230_
*277 _231_
*278 _232_
*279 _233_
*280 _234_
*281 _235_
*282 _236_
*283 _237_
*284 _238_
*285 _239_
*286 _240_
*287 _241_
*288 _242_
*289 _243_
*290 _244_
*291 _245_
*292 _246_
*293 _247_
*294 _248_
*295 _249_
*296 _250_
*297 _251_
*298 _252_
*299 _253_
*300 _254_
*301 _255_
*302 _256_
*303 _257_
*304 _258_
*305 _259_
*306 _260_
*307 _261_
*308 _262_
*309 _263_
*310 _264_
*311 _265_
*312 _266_
*313 _267_
*314 _268_
*315 _269_
*316 _270_
*317 _271_
*318 _272_
*319 _273_
*320 _274_
*321 _275_
*322 _276_
*323 _277_
*324 _278_
*325 _279_
*326 _280_
*327 _281_
*328 _282_
*329 _283_
*330 _284_
*331 _285_
*332 _286_
*333 _287_
*334 _288_
*335 _289_
*336 _290_
*337 _291_
*338 _292_
*339 _293_
*340 _294_
*341 _295_
*342 _296_
*343 _297_
*344 _298_
*345 _299_
*346 _300_
*347 _301_
*348 _302_
*349 _303_
*350 _304_
*351 _305_
*352 _306_
*353 _307_
*354 _308_
*355 _309_
*356 _310_
*357 _311_
*358 _312_
*359 _313_
*360 _314_
*361 _315_
*362 _316_
*363 _317_
*364 _318_
*365 _319_
*366 _320_
*367 _321_
*368 _322_
*369 _323_
*370 _324_
*371 _325_
*372 _326_
*373 _327_
*374 _328_
*375 _329_
*376 _330_
*377 _331_
*378 _332_
*379 _333_
*380 _334_
*381 _335_
*382 _336_
*383 _337_
*384 _338_
*385 _339_
*386 _340_
*387 _341_
*388 _342_
*389 _343_
*390 _344_
*391 _345_
*392 _346_
*393 _347_
*394 _348_
*395 _349_
*396 _350_
*397 _351_
*398 _352_
*399 _353_
*400 _354_
*401 _355_
*402 _356_
*403 _357_
*404 _358_
*405 _359_
*406 _360_
*407 _361_
*408 _362_
*409 _363_
*410 _364_
*411 _365_
*412 _366_
*413 _367_
*414 _368_
*415 _369_
*416 _370_
*417 _371_
*418 _372_
*419 _373_
*420 _374_
*421 _375_
*422 _376_
*423 _377_
*424 _378_
*425 _379_
*426 _380_
*427 _381_
*428 _382_
*429 _383_
*430 _384_
*431 _385_
*432 _386_
*433 _387_
*434 _388_
*435 _389_
*436 _390_
*437 _391_
*438 _392_
*439 _393_
*440 _394_
*441 _395_
*442 _396_
*443 _397_
*444 _398_
*445 _399_
*446 _400_
*447 _401_
*448 _402_
*449 _403_
*450 adj_y\[0\]
*451 adj_y\[1\]
*452 adj_y\[2\]
*453 adj_y\[3\]
*454 adj_y\[4\]
*455 adj_y\[5\]
*456 bclk
*457 cell_clk
*458 cell_rst_n
*459 cell_state\[0\]
*460 cell_state\[10\]
*461 cell_state\[11\]
*462 cell_state\[12\]
*463 cell_state\[13\]
*464 cell_state\[14\]
*465 cell_state\[15\]
*466 cell_state\[1\]
*467 cell_state\[2\]
*468 cell_state\[3\]
*469 cell_state\[4\]
*470 cell_state\[5\]
*471 cell_state\[6\]
*472 cell_state\[7\]
*473 cell_state\[8\]
*474 cell_state\[9\]
*475 counter_r\[0\]
*476 counter_r\[10\]
*477 counter_r\[1\]
*478 counter_r\[2\]
*479 counter_r\[3\]
*480 counter_r\[4\]
*481 counter_r\[5\]
*482 counter_r\[6\]
*483 counter_r\[7\]
*484 counter_r\[8\]
*485 counter_r\[9\]
*486 hsync
*487 hsync_r
*488 i_music\.pwm
*489 i_music\.sample\[0\]
*490 i_music\.sample\[1\]
*491 i_music\.sample\[2\]
*492 i_music\.sample\[3\]
*493 i_music\.sample\[4\]
*494 i_music\.sample\[5\]
*495 i_music\.sample\[6\]
*496 i_music\.sample\[7\]
*497 i_music\.thresh\[0\]
*498 i_music\.thresh\[1\]
*499 i_music\.thresh\[2\]
*500 i_music\.thresh\[3\]
*501 i_music\.thresh\[4\]
*502 i_music\.thresh\[5\]
*503 i_music\.thresh\[6\]
*504 i_music\.thresh\[7\]
*505 i_music\.thresh\[8\]
*506 i_music\.thresh\[9\]
*507 i_music\.wen
*508 lfsr\[0\]
*509 lfsr\[10\]
*510 lfsr\[11\]
*511 lfsr\[12\]
*512 lfsr\[13\]
*513 lfsr\[14\]
*514 lfsr\[15\]
*515 lfsr\[16\]
*516 lfsr\[17\]
*517 lfsr\[18\]
*518 lfsr\[19\]
*519 lfsr\[1\]
*520 lfsr\[2\]
*521 lfsr\[3\]
*522 lfsr\[4\]
*523 lfsr\[5\]
*524 lfsr\[6\]
*525 lfsr\[7\]
*526 lfsr\[8\]
*527 lfsr\[9\]
*528 lfsr_buf\[0\]
*529 lfsr_buf\[10\]
*530 lfsr_buf\[11\]
*531 lfsr_buf\[12\]
*532 lfsr_buf\[13\]
*533 lfsr_buf\[14\]
*534 lfsr_buf\[1\]
*535 lfsr_buf\[2\]
*536 lfsr_buf\[3\]
*537 lfsr_buf\[4\]
*538 lfsr_buf\[5\]
*539 lfsr_buf\[6\]
*540 lfsr_buf\[7\]
*541 lfsr_buf\[8\]
*542 lfsr_buf\[9\]
*543 net1
*544 net10
*545 net11
*546 net12
*547 net13
*548 net14
*549 net15
*550 net16
*551 net17
*552 net18
*553 net19
*554 net2
*555 net20
*556 net21
*557 net22
*558 net23
*559 net24
*560 net25
*561 net26
*562 net27
*563 net28
*564 net29
*565 net3
*566 net30
*567 net31
*568 net32
*569 net33
*570 net34
*571 net35
*572 net36
*573 net37
*574 net38
*575 net39
*576 net4
*577 net40
*578 net41
*579 net42
*580 net43
*581 net44
*582 net45
*583 net46
*584 net47
*585 net48
*586 net49
*587 net5
*588 net50
*589 net51
*590 net52
*591 net53
*592 net54
*593 net55
*594 net56
*595 net57
*596 net58
*597 net59
*598 net6
*599 net60
*600 net61
*601 net62
*602 net63
*603 net7
*604 net77
*605 net8
*606 net9
*607 rom_q\[0\]
*608 rom_q\[1\]
*609 rom_q\[2\]
*610 rom_q\[3\]
*611 timing\.active
*612 timing\.count\[0\]
*613 timing\.count\[10\]
*614 timing\.count\[11\]
*615 timing\.count\[12\]
*616 timing\.count\[13\]
*617 timing\.count\[14\]
*618 timing\.count\[15\]
*619 timing\.count\[16\]
*620 timing\.count\[17\]
*621 timing\.count\[18\]
*622 timing\.count\[19\]
*623 timing\.count\[1\]
*624 timing\.count\[2\]
*625 timing\.count\[3\]
*626 timing\.count\[4\]
*627 timing\.count\[5\]
*628 timing\.count\[6\]
*629 timing\.count\[7\]
*630 timing\.count\[8\]
*631 timing\.count\[9\]
*632 timing\.count_max
*633 timing\.count_rst_n
*634 timing\.vsync
*635 vsync_r
*636 was_cell
*637 was_tt_sq
*638 ANTENNA_1
*639 ANTENNA_2
*640 ANTENNA_3
*641 ANTENNA_4
*642 ANTENNA_5
*643 ANTENNA_6
*644 ANTENNA_7
*645 CG
*646 FILLER_0_1
*647 FILLER_10_108
*648 FILLER_10_169
*649 FILLER_10_178
*650 FILLER_10_181
*651 FILLER_10_199
*652 FILLER_10_246
*653 FILLER_10_278
*654 FILLER_10_306
*655 FILLER_11_1
*656 FILLER_11_146
*657 FILLER_11_178
*658 FILLER_11_197
*659 FILLER_11_200
*660 FILLER_11_242
*661 FILLER_11_251
*662 FILLER_11_253
*663 FILLER_11_289
*664 FILLER_11_29
*665 FILLER_11_56
*666 FILLER_11_74
*667 FILLER_12_149
*668 FILLER_12_166
*669 FILLER_12_191
*670 FILLER_12_207
*671 FILLER_12_222
*672 FILLER_12_232
*673 FILLER_12_264
*674 FILLER_12_279
*675 FILLER_12_318
*676 FILLER_12_79
*677 FILLER_12_91
*678 FILLER_13_121
*679 FILLER_13_141
*680 FILLER_13_171
*681 FILLER_13_174
*682 FILLER_13_192
*683 FILLER_13_195
*684 FILLER_13_206
*685 FILLER_13_209
*686 FILLER_13_282
*687 FILLER_13_72
*688 FILLER_13_83
*689 FILLER_13_90
*690 FILLER_14_1
*691 FILLER_14_123
*692 FILLER_14_150
*693 FILLER_14_184
*694 FILLER_14_199
*695 FILLER_14_214
*696 FILLER_14_279
*697 FILLER_14_327
*698 FILLER_14_335
*699 FILLER_14_34
*700 FILLER_14_4
*701 FILLER_14_57
*702 FILLER_14_82
*703 FILLER_14_92
*704 FILLER_15_136
*705 FILLER_15_141
*706 FILLER_15_17
*707 FILLER_15_206
*708 FILLER_15_251
*709 FILLER_15_253
*710 FILLER_15_342
*711 FILLER_15_85
*712 FILLER_15_91
*713 FILLER_16_1
*714 FILLER_16_111
*715 FILLER_16_146
*716 FILLER_16_174
*717 FILLER_16_193
*718 FILLER_16_248
*719 FILLER_16_279
*720 FILLER_16_298
*721 FILLER_16_334
*722 FILLER_16_70
*723 FILLER_1_111
*724 FILLER_1_123
*725 FILLER_1_139
*726 FILLER_1_144
*727 FILLER_1_150
*728 FILLER_1_169
*729 FILLER_1_186
*730 FILLER_1_189
*731 FILLER_1_192
*732 FILLER_1_195
*733 FILLER_1_204
*734 FILLER_1_207
*735 FILLER_1_210
*736 FILLER_1_22
*737 FILLER_1_223
*738 FILLER_1_230
*739 FILLER_1_233
*740 FILLER_1_248
*741 FILLER_1_251
*742 FILLER_1_286
*743 FILLER_1_309
*744 FILLER_1_332
*745 FILLER_1_335
*746 FILLER_1_342
*747 FILLER_1_52
*748 FILLER_1_55
*749 FILLER_1_57
*750 FILLER_1_72
*751 FILLER_1_75
*752 FILLER_2_1
*753 FILLER_2_135
*754 FILLER_2_209
*755 FILLER_2_215
*756 FILLER_2_230
*757 FILLER_2_240
*758 FILLER_2_266
*759 FILLER_2_278
*760 FILLER_2_320
*761 FILLER_2_342
*762 FILLER_2_79
*763 FILLER_3_121
*764 FILLER_3_141
*765 FILLER_3_178
*766 FILLER_3_193
*767 FILLER_3_202
*768 FILLER_3_205
*769 FILLER_3_217
*770 FILLER_3_249
*771 FILLER_3_263
*772 FILLER_3_273
*773 FILLER_3_281
*774 FILLER_3_305
*775 FILLER_3_309
*776 FILLER_3_312
*777 FILLER_3_319
*778 FILLER_3_41
*779 FILLER_3_75
*780 FILLER_3_83
*781 FILLER_4_103
*782 FILLER_4_14
*783 FILLER_4_152
*784 FILLER_4_169
*785 FILLER_4_209
*786 FILLER_4_212
*787 FILLER_4_220
*788 FILLER_4_223
*789 FILLER_4_235
*790 FILLER_4_244
*791 FILLER_4_247
*792 FILLER_4_267
*793 FILLER_4_281
*794 FILLER_4_342
*795 FILLER_4_45
*796 FILLER_4_70
*797 FILLER_4_83
*798 FILLER_5_109
*799 FILLER_5_147
*800 FILLER_5_150
*801 FILLER_5_166
*802 FILLER_5_170
*803 FILLER_5_189
*804 FILLER_5_197
*805 FILLER_5_211
*806 FILLER_5_214
*807 FILLER_5_251
*808 FILLER_5_27
*809 FILLER_5_29
*810 FILLER_5_293
*811 FILLER_5_301
*812 FILLER_5_309
*813 FILLER_5_318
*814 FILLER_5_321
*815 FILLER_5_35
*816 FILLER_5_63
*817 FILLER_5_83
*818 FILLER_5_85
*819 FILLER_5_88
*820 FILLER_6_113
*821 FILLER_6_153
*822 FILLER_6_169
*823 FILLER_6_223
*824 FILLER_6_342
*825 FILLER_6_71
*826 FILLER_6_84
*827 FILLER_7_105
*828 FILLER_7_121
*829 FILLER_7_139
*830 FILLER_7_141
*831 FILLER_7_144
*832 FILLER_7_160
*833 FILLER_7_195
*834 FILLER_7_197
*835 FILLER_7_217
*836 FILLER_7_248
*837 FILLER_7_251
*838 FILLER_7_258
*839 FILLER_7_273
*840 FILLER_7_299
*841 FILLER_7_85
*842 FILLER_8_104
*843 FILLER_8_126
*844 FILLER_8_134
*845 FILLER_8_169
*846 FILLER_8_193
*847 FILLER_8_210
*848 FILLER_8_233
*849 FILLER_8_278
*850 FILLER_8_327
*851 FILLER_8_342
*852 FILLER_8_46
*853 FILLER_8_95
*854 FILLER_9_146
*855 FILLER_9_162
*856 FILLER_9_193
*857 FILLER_9_197
*858 FILLER_9_29
*859 FILLER_9_307
*860 FILLER_9_342
*861 FILLER_9_59
*862 FILLER_9_85
*863 PHY_EDGE_ROW_23_1_Left_17
*864 PHY_EDGE_ROW_23_1_Right_0
*865 PHY_EDGE_ROW_24_Left_18
*866 PHY_EDGE_ROW_24_Right_1
*867 PHY_EDGE_ROW_25_Left_19
*868 PHY_EDGE_ROW_25_Right_2
*869 PHY_EDGE_ROW_26_Left_20
*870 PHY_EDGE_ROW_26_Right_3
*871 PHY_EDGE_ROW_27_Left_21
*872 PHY_EDGE_ROW_27_Right_4
*873 PHY_EDGE_ROW_28_Left_22
*874 PHY_EDGE_ROW_28_Right_5
*875 PHY_EDGE_ROW_29_Left_23
*876 PHY_EDGE_ROW_29_Right_6
*877 PHY_EDGE_ROW_30_Left_24
*878 PHY_EDGE_ROW_30_Right_7
*879 PHY_EDGE_ROW_31_Left_25
*880 PHY_EDGE_ROW_31_Right_8
*881 PHY_EDGE_ROW_32_Left_26
*882 PHY_EDGE_ROW_32_Right_9
*883 PHY_EDGE_ROW_33_Left_27
*884 PHY_EDGE_ROW_33_Right_10
*885 PHY_EDGE_ROW_34_Left_28
*886 PHY_EDGE_ROW_34_Right_11
*887 PHY_EDGE_ROW_35_Left_29
*888 PHY_EDGE_ROW_35_Right_12
*889 PHY_EDGE_ROW_36_Left_30
*890 PHY_EDGE_ROW_36_Right_13
*891 PHY_EDGE_ROW_37_Left_31
*892 PHY_EDGE_ROW_37_Right_14
*893 PHY_EDGE_ROW_38_Left_32
*894 PHY_EDGE_ROW_38_Right_15
*895 PHY_EDGE_ROW_39_Left_33
*896 PHY_EDGE_ROW_39_Right_16
*897 TAP_TAPCELL_ROW_24_34
*898 TAP_TAPCELL_ROW_24_35
*899 TAP_TAPCELL_ROW_24_36
*900 TAP_TAPCELL_ROW_24_37
*901 TAP_TAPCELL_ROW_24_38
*902 TAP_TAPCELL_ROW_24_39
*903 TAP_TAPCELL_ROW_24_40
*904 TAP_TAPCELL_ROW_24_41
*905 TAP_TAPCELL_ROW_24_42
*906 TAP_TAPCELL_ROW_24_43
*907 TAP_TAPCELL_ROW_24_44
*908 TAP_TAPCELL_ROW_24_45
*909 TAP_TAPCELL_ROW_25_46
*910 TAP_TAPCELL_ROW_25_47
*911 TAP_TAPCELL_ROW_25_48
*912 TAP_TAPCELL_ROW_25_49
*913 TAP_TAPCELL_ROW_25_50
*914 TAP_TAPCELL_ROW_25_51
*915 TAP_TAPCELL_ROW_26_52
*916 TAP_TAPCELL_ROW_26_53
*917 TAP_TAPCELL_ROW_26_54
*918 TAP_TAPCELL_ROW_26_55
*919 TAP_TAPCELL_ROW_26_56
*920 TAP_TAPCELL_ROW_26_57
*921 TAP_TAPCELL_ROW_27_58
*922 TAP_TAPCELL_ROW_27_59
*923 TAP_TAPCELL_ROW_27_60
*924 TAP_TAPCELL_ROW_27_61
*925 TAP_TAPCELL_ROW_27_62
*926 TAP_TAPCELL_ROW_27_63
*927 TAP_TAPCELL_ROW_28_64
*928 TAP_TAPCELL_ROW_28_65
*929 TAP_TAPCELL_ROW_28_66
*930 TAP_TAPCELL_ROW_28_67
*931 TAP_TAPCELL_ROW_28_68
*932 TAP_TAPCELL_ROW_28_69
*933 TAP_TAPCELL_ROW_29_70
*934 TAP_TAPCELL_ROW_29_71
*935 TAP_TAPCELL_ROW_29_72
*936 TAP_TAPCELL_ROW_29_73
*937 TAP_TAPCELL_ROW_29_74
*938 TAP_TAPCELL_ROW_29_75
*939 TAP_TAPCELL_ROW_30_76
*940 TAP_TAPCELL_ROW_30_77
*941 TAP_TAPCELL_ROW_30_78
*942 TAP_TAPCELL_ROW_30_79
*943 TAP_TAPCELL_ROW_30_80
*944 TAP_TAPCELL_ROW_30_81
*945 TAP_TAPCELL_ROW_31_82
*946 TAP_TAPCELL_ROW_31_83
*947 TAP_TAPCELL_ROW_31_84
*948 TAP_TAPCELL_ROW_31_85
*949 TAP_TAPCELL_ROW_31_86
*950 TAP_TAPCELL_ROW_31_87
*951 TAP_TAPCELL_ROW_32_88
*952 TAP_TAPCELL_ROW_32_89
*953 TAP_TAPCELL_ROW_32_90
*954 TAP_TAPCELL_ROW_32_91
*955 TAP_TAPCELL_ROW_32_92
*956 TAP_TAPCELL_ROW_32_93
*957 TAP_TAPCELL_ROW_33_94
*958 TAP_TAPCELL_ROW_33_95
*959 TAP_TAPCELL_ROW_33_96
*960 TAP_TAPCELL_ROW_33_97
*961 TAP_TAPCELL_ROW_33_98
*962 TAP_TAPCELL_ROW_33_99
*963 TAP_TAPCELL_ROW_34_100
*964 TAP_TAPCELL_ROW_34_101
*965 TAP_TAPCELL_ROW_34_102
*966 TAP_TAPCELL_ROW_34_103
*967 TAP_TAPCELL_ROW_34_104
*968 TAP_TAPCELL_ROW_34_105
*969 TAP_TAPCELL_ROW_35_106
*970 TAP_TAPCELL_ROW_35_107
*971 TAP_TAPCELL_ROW_35_108
*972 TAP_TAPCELL_ROW_35_109
*973 TAP_TAPCELL_ROW_35_110
*974 TAP_TAPCELL_ROW_35_111
*975 TAP_TAPCELL_ROW_36_112
*976 TAP_TAPCELL_ROW_36_113
*977 TAP_TAPCELL_ROW_36_114
*978 TAP_TAPCELL_ROW_36_115
*979 TAP_TAPCELL_ROW_36_116
*980 TAP_TAPCELL_ROW_36_117
*981 TAP_TAPCELL_ROW_37_118
*982 TAP_TAPCELL_ROW_37_119
*983 TAP_TAPCELL_ROW_37_120
*984 TAP_TAPCELL_ROW_37_121
*985 TAP_TAPCELL_ROW_37_122
*986 TAP_TAPCELL_ROW_37_123
*987 TAP_TAPCELL_ROW_38_124
*988 TAP_TAPCELL_ROW_38_125
*989 TAP_TAPCELL_ROW_38_126
*990 TAP_TAPCELL_ROW_38_127
*991 TAP_TAPCELL_ROW_38_128
*992 TAP_TAPCELL_ROW_38_129
*993 TAP_TAPCELL_ROW_39_130
*994 TAP_TAPCELL_ROW_39_131
*995 TAP_TAPCELL_ROW_39_132
*996 TAP_TAPCELL_ROW_39_133
*997 TAP_TAPCELL_ROW_39_134
*998 TAP_TAPCELL_ROW_39_135
*999 TAP_TAPCELL_ROW_39_136
*1000 TAP_TAPCELL_ROW_39_137
*1001 TAP_TAPCELL_ROW_39_138
*1002 TAP_TAPCELL_ROW_39_139
*1003 TAP_TAPCELL_ROW_39_140
*1004 TAP_TAPCELL_ROW_39_141
*1005 _405_
*1006 _406_
*1007 _407_
*1008 _408_
*1009 _409_
*1010 _410_
*1011 _411_
*1012 _412_
*1013 _413_
*1014 _414_
*1015 _415_
*1016 _416_
*1017 _417_
*1018 _418_
*1019 _419_
*1020 _420_
*1021 _421_
*1022 _422_
*1023 _423_
*1024 _424_
*1025 _425_
*1026 _426_
*1027 _427_
*1028 _428_
*1029 _429_
*1030 _430_
*1031 _431_
*1032 _432_
*1033 _433_
*1034 _434_
*1035 _435_
*1036 _436_
*1037 _437_
*1038 _438_
*1039 _439_
*1040 _440_
*1041 _441_
*1042 _442_
*1043 _443_
*1044 _444_
*1045 _445_
*1046 _446_
*1047 _447_
*1048 _448_
*1049 _449_
*1050 _450_
*1051 _451_
*1052 _452_
*1053 _453_
*1054 _454_
*1055 _455_
*1056 _456_
*1057 _457_
*1058 _458_
*1059 _459_
*1060 _460_
*1061 _461_
*1062 _462_
*1063 _463_
*1064 _464_
*1065 _465_
*1066 _466_
*1067 _467_
*1068 _468_
*1069 _469_
*1070 _470_
*1071 _471_
*1072 _472_
*1073 _473_
*1074 _474_
*1075 _475_
*1076 _476_
*1077 _477_
*1078 _478_
*1079 _479_
*1080 _480_
*1081 _481_
*1082 _482_
*1083 _483_
*1084 _484_
*1085 _485_
*1086 _486_
*1087 _487_
*1088 _488_
*1089 _489_
*1090 _490_
*1091 _491_
*1092 _492_
*1093 _493_
*1094 _494_
*1095 _495_
*1096 _496_
*1097 _497_
*1098 _498_
*1099 _499_
*1100 _500_
*1101 _501_
*1102 _502_
*1103 _503_
*1104 _504_
*1105 _505_
*1106 _506_
*1107 _507_
*1108 _508_
*1109 _509_
*1110 _510_
*1111 _511_
*1112 _512_
*1113 _513_
*1114 _514_
*1115 _515_
*1116 _516_
*1117 _517_
*1118 _518_
*1119 _519_
*1120 _520_
*1121 _521_
*1122 _522_
*1123 _523_
*1124 _524_
*1125 _525_
*1126 _526_
*1127 _527_
*1128 _528_
*1129 _529_
*1130 _530_
*1131 _531_
*1132 _532_
*1133 _533_
*1134 _534_
*1135 _535_
*1136 _536_
*1137 _537_
*1138 _538_
*1139 _539_
*1140 _540_
*1141 _541_
*1142 _542_
*1143 _543_
*1144 _544_
*1145 _545_
*1146 _546_
*1147 _547_
*1148 _548_
*1149 _549_
*1150 _550_
*1151 _551_
*1152 _552_
*1153 _553_
*1154 _554_
*1155 _555_
*1156 _556_
*1157 _557_
*1158 _558_
*1159 _559_
*1160 _560_
*1161 _561_
*1162 _562_
*1163 _563_
*1164 _564_
*1165 _565_
*1166 _566_
*1167 _567_
*1168 _568_
*1169 _569_
*1170 _570_
*1171 _571_
*1172 _572_
*1173 _573_
*1174 _574_
*1175 _575_
*1176 _576_
*1177 _577_
*1178 _578_
*1179 _579_
*1180 _580_
*1181 _581_
*1182 _582_
*1183 _583_
*1184 _584_
*1185 _585_
*1186 _586_
*1187 _587_
*1188 _588_
*1189 _589_
*1190 _590_
*1191 _591_
*1192 _592_
*1193 _593_
*1194 _594_
*1195 _595_
*1196 _596_
*1197 _597_
*1198 _598_
*1199 _599_
*1200 _600_
*1201 _601_
*1202 _602_
*1203 _603_
*1204 _604_
*1205 _605_
*1206 _606_
*1207 _607_
*1208 _608_
*1209 _609_
*1210 _610_
*1211 _611_
*1212 _612_
*1213 _613_
*1214 _614_
*1215 _615_
*1216 _616_
*1217 _617_
*1218 _618_
*1219 _619_
*1220 _620_
*1221 _621_
*1222 _622_
*1223 _623_
*1224 _624_
*1225 _625_
*1226 _626_
*1227 _627_
*1228 _628_
*1229 _629_
*1230 _630_
*1231 _631_
*1232 _632_
*1233 _633_
*1234 _634_
*1235 _635_
*1236 _636_
*1237 _637_
*1238 _638_
*1239 _639_
*1240 _640_
*1241 _641_
*1242 _642_
*1243 _643_
*1244 _644_
*1245 _645_
*1246 _646_
*1247 _647_
*1248 _648_
*1249 _649_
*1250 _650_
*1251 _651_
*1252 _652_
*1253 _653_
*1254 _654_
*1255 _655_
*1256 _656_
*1257 _657_
*1258 _658_
*1259 _659_
*1260 _660_
*1261 _661_
*1262 _662_
*1263 _663_
*1264 _664_
*1265 _665_
*1266 _666_
*1267 _667_
*1268 _668_
*1269 _669_
*1270 _670_
*1271 _671_
*1272 _672_
*1273 _673_
*1274 _674_
*1275 _675_
*1276 _676_
*1277 _677_
*1278 _678_
*1279 _679_
*1280 _680_
*1281 _681_
*1282 _682_
*1283 _683_
*1284 _684_
*1285 _685_
*1286 _686_
*1287 _687_
*1288 _688_
*1289 _689_
*1290 _690_
*1291 _691_
*1292 _692_
*1293 _693_
*1294 _694_
*1295 _695_
*1296 _696_
*1297 _697_
*1298 _698_
*1299 _699_
*1300 _700_
*1301 _701_
*1302 _702_
*1303 _703_
*1304 _704_
*1305 _705_
*1306 _706_
*1307 _707_
*1308 _708_
*1309 _709_
*1310 _710_
*1311 _711_
*1312 _712_
*1313 _713_
*1314 _714_
*1315 _715_
*1316 _716_
*1317 _717_
*1318 _718_
*1319 _719_
*1320 _720_
*1321 _721_
*1322 _722_
*1323 _723_
*1324 _724_
*1325 _725_
*1326 _726_
*1327 _727_
*1328 _728_
*1329 _729_
*1330 _730_
*1331 _731_
*1332 _732_
*1333 _733_
*1334 _734_
*1335 _735_
*1336 _736_
*1337 _737_
*1338 _738_
*1339 _739_
*1340 _740_
*1341 _741_
*1342 _742_
*1343 _743_
*1344 _744_
*1345 _745_
*1346 _746_
*1347 _747_
*1348 _748_
*1349 _749_
*1350 _750_
*1351 _751_
*1352 _752_
*1353 _753_
*1354 _754_
*1355 _755_
*1356 _756_
*1357 _757_
*1358 _758_
*1359 _759_
*1360 _760_
*1361 _761_
*1362 _762_
*1363 _763_
*1364 _764_
*1365 _765_
*1366 _766_
*1367 _767_
*1368 _768_
*1369 _769_
*1370 _770_
*1371 _771_
*1372 _772_
*1373 _773_
*1374 _774_
*1375 _775_
*1376 _776_
*1377 _777_
*1378 _778_
*1379 _779_
*1380 _780_
*1381 _781_
*1382 _782_
*1383 _783_
*1384 _784_
*1385 _785_
*1386 _786_
*1387 _787_
*1388 _788_
*1389 _789_
*1390 _790_
*1391 _791_
*1392 _792_
*1393 _793_
*1394 _794_
*1395 _795_
*1396 _796_
*1397 _797_
*1398 _798_
*1399 _799_
*1400 _800_
*1401 _801_
*1402 _802_
*1403 _803_
*1404 _804_
*1405 _805_
*1406 _806_
*1407 _807_
*1408 _808_
*1409 _809_
*1410 _810_
*1411 _811_
*1412 _812_
*1413 _813_
*1414 _814_
*1415 _815_
*1416 _816_
*1417 _817_
*1418 _818_
*1419 _819_
*1420 _820_
*1421 _821_
*1422 _822_
*1423 _823_
*1424 _824_
*1425 _825_
*1426 _826_
*1427 _827_
*1428 _828_
*1429 _829_
*1430 _830_
*1431 _831_
*1432 _832_
*1433 _833_
*1434 _834_
*1435 _835_
*1436 _836_
*1437 _837_
*1438 _838_
*1439 _839_
*1440 _840_
*1441 _841_
*1442 _842_
*1443 _843_
*1444 _844_
*1445 _845_
*1446 _846_
*1447 _847_
*1448 _848_
*1449 _849_
*1450 _850_
*1451 _851_
*1452 _852_
*1453 _853_
*1454 _854_
*1455 _855_
*1456 _856_
*1457 _857_
*1458 _858_
*1459 _859_
*1460 _860_
*1461 _861_
*1462 _862_
*1463 _863_
*1464 _864_
*1465 _865_
*1466 _866_
*1467 _867_
*1468 _868_
*1469 _869_
*1470 _870_
*1471 _871_
*1472 _872_
*1473 _873_
*1474 _874_
*1475 _875_
*1476 _876_
*1477 _877_
*1478 _878_
*1479 _879_
*1480 _880_
*1481 _881_
*1482 _882_
*1483 _883_
*1484 _884_
*1485 _885_
*1486 _886_
*1487 _887_
*1488 _888_
*1489 _889_
*1490 _890_
*1491 _891_
*1492 _892_
*1493 _893_
*1494 _894_
*1495 _895_
*1496 _912_
*1497 _913_
*1498 _914_
*1499 fanout10
*1500 fanout11
*1501 fanout12
*1502 fanout13
*1503 fanout14
*1504 fanout15
*1505 fanout16
*1506 fanout17
*1507 fanout18
*1508 fanout19
*1509 fanout20
*1510 fanout21
*1511 fanout22
*1512 fanout23
*1513 fanout24
*1514 fanout25
*1515 fanout26
*1516 fanout27
*1517 fanout28
*1518 fanout29
*1519 fanout30
*1520 fanout31
*1521 fanout32
*1522 fanout33
*1523 fanout34
*1524 fanout35
*1525 fanout36
*1526 fanout37
*1527 fanout38
*1528 fanout39
*1529 fanout40
*1530 fanout41
*1531 fanout42
*1532 fanout43
*1533 fanout44
*1534 fanout45
*1535 fanout46
*1536 fanout47
*1537 fanout48
*1538 fanout49
*1539 fanout50
*1540 fanout51
*1541 fanout52
*1542 fanout53
*1543 fanout54
*1544 fanout55
*1545 fanout56
*1546 fanout57
*1547 fanout58
*1548 fanout59
*1549 fanout6
*1550 fanout60
*1551 fanout61
*1552 fanout63
*1553 fanout7
*1554 fanout8
*1555 fanout9
*1556 i_clk_buf
*1557 i_lfsrbuf\[0\]
*1558 i_lfsrbuf\[10\]
*1559 i_lfsrbuf\[11\]
*1560 i_lfsrbuf\[12\]
*1561 i_lfsrbuf\[13\]
*1562 i_lfsrbuf\[14\]
*1563 i_lfsrbuf\[1\]
*1564 i_lfsrbuf\[2\]
*1565 i_lfsrbuf\[3\]
*1566 i_lfsrbuf\[4\]
*1567 i_lfsrbuf\[5\]
*1568 i_lfsrbuf\[6\]
*1569 i_lfsrbuf\[7\]
*1570 i_lfsrbuf\[8\]
*1571 i_lfsrbuf\[9\]
*1572 input1
*1573 input2
*1574 input3
*1575 input4
*1576 input5
*1577 load_slew62
*1578 sprite
*1579 timing\.counter
*1580 timing\.counter_77
*1581 timing\.i_and
*1582 timing\.i_nand
*1583 tt_um_rebelmike_asic_odyssey
*1584 tt_um_rebelmike_asic_odyssey_64
*1585 tt_um_rebelmike_asic_odyssey_65
*1586 tt_um_rebelmike_asic_odyssey_66
*1587 tt_um_rebelmike_asic_odyssey_67
*1588 tt_um_rebelmike_asic_odyssey_68
*1589 tt_um_rebelmike_asic_odyssey_69
*1590 tt_um_rebelmike_asic_odyssey_70
*1591 tt_um_rebelmike_asic_odyssey_71
*1592 tt_um_rebelmike_asic_odyssey_72
*1593 tt_um_rebelmike_asic_odyssey_73
*1594 tt_um_rebelmike_asic_odyssey_74
*1595 tt_um_rebelmike_asic_odyssey_75
*1596 tt_um_rebelmike_asic_odyssey_76
*1597 tt_um_rebelmike_asic_odyssey_78

*PORTS
clk I
ena I
rst_n I
ui_in[0] I
ui_in[1] I
ui_in[2] I
ui_in[3] I
ui_in[4] I
ui_in[5] I
ui_in[6] I
ui_in[7] I
uio_in[0] I
uio_in[1] I
uio_in[2] I
uio_in[3] I
uio_in[4] I
uio_in[5] I
uio_in[6] I
uio_in[7] I
uio_oe[0] O
uio_oe[1] O
uio_oe[2] O
uio_oe[3] O
uio_oe[4] O
uio_oe[5] O
uio_oe[6] O
uio_oe[7] O
uio_out[0] O
uio_out[1] O
uio_out[2] O
uio_out[3] O
uio_out[4] O
uio_out[5] O
uio_out[6] O
uio_out[7] O
uo_out[0] O
uo_out[1] O
uo_out[2] O
uo_out[3] O
uo_out[4] O
uo_out[5] O
uo_out[6] O
uo_out[7] O

*D_NET *3 0.00611995
*CONN
*P clk I
*I *1556:A I *D sky130_fd_sc_hd__clkbuf_16
*CAP
1 clk 0.000257024
2 *1556:A 0.000443976
3 *3:15 0.000701
4 *1556:A *1487:CLK 7.87243e-05
5 *1556:A *10:15 0.00014347
6 *1556:A *96:10 0.000671405
7 *1556:A *424:28 0.00101665
8 *1556:A *511:22 0.000104555
9 *1556:A *515:26 0.000193739
10 *1556:A *531:8 0.00244841
11 *3:15 *5:15 6.10039e-05
12 *3:15 *508:123 0
*RES
1 clk *3:15 32.8554 
2 *3:15 *1556:A 49.825 
*END

*D_NET *5 0.000824927
*CONN
*P rst_n I
*I *1572:A I *D sky130_fd_sc_hd__clkdlybuf4s25_1
*CAP
1 rst_n 0.000362213
2 *1572:A 0
3 *5:15 0.000362213
4 *5:15 *508:123 0
5 *5:15 *511:37 3.94969e-05
6 *5:15 *514:33 0
7 *5:15 *547:42 0
8 *3:15 *5:15 6.10039e-05
*RES
1 rst_n *5:15 33.4651 
2 *5:15 *1572:A 23 
*END

*D_NET *10 0.0027771
*CONN
*P ui_in[4] I
*I *1573:A I *D sky130_fd_sc_hd__clkdlybuf4s25_1
*CAP
1 ui_in[4] 0.000836236
2 *1573:A 0
3 *10:15 0.000836236
4 *10:15 *11:15 0.000100466
5 *10:15 *510:18 0
6 *10:15 *511:10 6.3765e-05
7 *10:15 *511:22 0.000583301
8 *10:15 *511:37 0.000107467
9 *10:15 *514:33 0
10 *10:15 *531:8 0.000106163
11 *1556:A *10:15 0.00014347
*RES
1 ui_in[4] *10:15 36.4242 
2 *10:15 *1573:A 23 
*END

*D_NET *11 0.00251033
*CONN
*P ui_in[5] I
*I *1574:A I *D sky130_fd_sc_hd__clkdlybuf4s25_1
*CAP
1 ui_in[5] 0.000777674
2 *1574:A 0
3 *11:15 0.000777674
4 *11:15 *1285:B 0
5 *11:15 *1347:A 9.28078e-06
6 *11:15 *12:15 0.000153991
7 *11:15 *13:15 0
8 *11:15 *353:34 1.92442e-05
9 *11:15 *508:18 0.000334564
10 *11:15 *509:10 0.000132918
11 *11:15 *550:48 4.96824e-05
12 *11:15 *587:16 0.000154839
13 *10:15 *11:15 0.000100466
*RES
1 ui_in[5] *11:15 39.2799 
2 *11:15 *1574:A 23 
*END

*D_NET *12 0.00241985
*CONN
*P ui_in[6] I
*I *1575:A I *D sky130_fd_sc_hd__clkdlybuf4s25_1
*CAP
1 ui_in[6] 0.000704733
2 *1575:A 0
3 *12:15 0.000704733
4 *12:15 *1285:B 0
5 *12:15 *13:15 0.000137079
6 *12:15 *77:10 3.67406e-05
7 *12:15 *508:18 0
8 *12:15 *511:22 0.00044164
9 *12:15 *547:42 0.000240931
10 *11:15 *12:15 0.000153991
*RES
1 ui_in[6] *12:15 37.3052 
2 *12:15 *1575:A 23 
*END

*D_NET *13 0.00193252
*CONN
*P ui_in[7] I
*I *1576:A I *D sky130_fd_sc_hd__clkdlybuf4s25_1
*CAP
1 ui_in[7] 0.000608378
2 *1576:A 0
3 *13:15 0.000608378
4 *13:15 *1418:CLK 0
5 *13:15 *353:34 0.000200528
6 *13:15 *550:48 0.000378154
7 *11:15 *13:15 0
8 *12:15 *13:15 0.000137079
*RES
1 ui_in[7] *13:15 34.2467 
2 *13:15 *1576:A 23 
*END

*D_NET *22 0.00465081
*CONN
*P uio_oe[0] O
*I *1583:LO O *D sky130_fd_sc_hd__conb_1
*CAP
1 uio_oe[0] 0.00148262
2 *1583:LO 0.00050213
3 *22:10 0.00198475
4 uio_oe[0] uio_oe[1] 5.25451e-05
5 uio_oe[0] uio_out[7] 0.000320605
6 uio_oe[0] *144:26 1.70278e-05
7 uio_oe[0] *177:41 4.62763e-05
8 *22:10 *1077:A 0
9 *22:10 *1242:A_N 0.000137535
10 *22:10 *1247:C1 0
11 *22:10 *1437:CLK 0
12 *22:10 *304:10 3.56604e-05
13 *22:10 *306:55 0
14 *22:10 *569:67 1.43266e-05
15 *22:10 *570:47 5.73309e-05
*RES
1 *1583:LO *22:10 45.9854 
2 *22:10 uio_oe[0] 19.1733 
*END

*D_NET *23 0.00569227
*CONN
*P uio_oe[1] O
*I *1584:LO O *D sky130_fd_sc_hd__conb_1
*CAP
1 uio_oe[1] 0.00155531
2 *1584:LO 0.000577892
3 *23:12 0.0021332
4 uio_oe[1] uio_oe[2] 2.98412e-05
5 *23:12 uio_oe[6] 2.26497e-05
6 *23:12 *144:26 0.000118582
7 *23:12 *177:41 0.000866261
8 *23:12 *473:35 2.24814e-05
9 *23:12 *488:22 0.000288806
10 *23:12 *574:41 2.47015e-05
11 uio_oe[0] uio_oe[1] 5.25451e-05
*RES
1 *1584:LO *23:12 48.0515 
2 *23:12 uio_oe[1] 11.0744 
*END

*D_NET *24 0.00401436
*CONN
*P uio_oe[2] O
*I *1585:LO O *D sky130_fd_sc_hd__conb_1
*CAP
1 uio_oe[2] 0.000468021
2 *1585:LO 0.000734094
3 *24:12 0.00120212
4 uio_oe[2] uio_oe[3] 7.76735e-05
5 uio_oe[2] *256:10 7.57281e-06
6 uio_oe[2] *461:54 0
7 uio_oe[2] *598:40 1.60026e-05
8 *24:12 *1191:A 6.6978e-05
9 *24:12 *1438:D 0.000187754
10 *24:12 *27:10 0.000744753
11 *24:12 *109:10 2.02872e-05
12 *24:12 *263:16 0.000359546
13 *24:12 *457:172 9.97256e-05
14 uio_oe[1] uio_oe[2] 2.98412e-05
*RES
1 *1585:LO *24:12 39.53 
2 *24:12 uio_oe[2] 32.4411 
*END

*D_NET *25 0.00426923
*CONN
*P uio_oe[3] O
*I *1586:LO O *D sky130_fd_sc_hd__conb_1
*CAP
1 uio_oe[3] 0.000736743
2 *1586:LO 0.00055192
3 *25:10 0.00128866
4 uio_oe[3] uio_oe[4] 0.000295763
5 uio_oe[3] uio_oe[6] 0.000511951
6 uio_oe[3] *461:54 6.77729e-05
7 *25:10 *1329:A1 0.000248021
8 *25:10 *1329:A2 0.000250667
9 *25:10 *1334:C1 9.17998e-05
10 *25:10 *256:24 0.000119467
11 *25:10 *598:72 2.87922e-05
12 uio_oe[2] uio_oe[3] 7.76735e-05
*RES
1 *1586:LO *25:10 47.3525 
2 *25:10 uio_oe[3] 18.6544 
*END

*D_NET *26 0.00409744
*CONN
*P uio_oe[4] O
*I *1587:LO O *D sky130_fd_sc_hd__conb_1
*CAP
1 uio_oe[4] 0.000535615
2 *1587:LO 0.00100598
3 *26:6 0.0015416
4 uio_oe[4] uio_oe[5] 0.00013736
5 uio_oe[4] uio_oe[6] 0
6 uio_oe[4] *256:18 0
7 uio_oe[4] *263:16 6.97776e-05
8 *26:6 *29:18 2.03764e-06
9 *26:6 *457:79 0.000382847
10 *26:6 *457:85 3.22879e-05
11 *26:6 *471:8 9.41704e-05
12 uio_oe[3] uio_oe[4] 0.000295763
*RES
1 *1587:LO *26:6 36.485 
2 *26:6 uio_oe[4] 33.7838 
*END

*D_NET *27 0.0046021
*CONN
*P uio_oe[5] O
*I *1588:LO O *D sky130_fd_sc_hd__conb_1
*CAP
1 uio_oe[5] 0.000281785
2 *1588:LO 0.00130395
3 *27:10 0.00158574
4 uio_oe[5] uio_oe[6] 7.97196e-05
5 *27:10 *1426:D 0.000107748
6 *27:10 *1426:RESET_B 0.000222287
7 *27:10 *112:22 5.67806e-05
8 *27:10 *472:10 8.19707e-05
9 uio_oe[4] uio_oe[5] 0.00013736
10 *24:12 *27:10 0.000744753
*RES
1 *1588:LO *27:10 43.6729 
2 *27:10 uio_oe[5] 32.1835 
*END

*D_NET *28 0.0062018
*CONN
*P uio_oe[6] O
*I *1589:LO O *D sky130_fd_sc_hd__conb_1
*CAP
1 uio_oe[6] 0.00160218
2 *1589:LO 0
3 *28:6 0.00160218
4 uio_oe[6] uio_oe[7] 9.84196e-05
5 uio_oe[6] *1107:B 0.000380676
6 uio_oe[6] *1190:B 0
7 uio_oe[6] *1337:A1 4.70069e-05
8 uio_oe[6] *1522:A 0
9 uio_oe[6] *204:24 1.41227e-05
10 uio_oe[6] *307:53 0.00028266
11 uio_oe[6] *309:10 0.000308267
12 uio_oe[6] *310:22 1.09111e-05
13 uio_oe[6] *389:10 5.93092e-05
14 uio_oe[6] *461:54 0.000329929
15 uio_oe[6] *468:22 0
16 uio_oe[6] *470:21 1.95685e-05
17 uio_oe[6] *567:41 0.000373498
18 uio_oe[6] *574:31 2.96913e-05
19 uio_oe[6] *574:41 0.000221317
20 uio_oe[6] *599:10 0.000207737
21 uio_oe[3] uio_oe[6] 0.000511951
22 uio_oe[4] uio_oe[6] 0
23 uio_oe[5] uio_oe[6] 7.97196e-05
24 *23:12 uio_oe[6] 2.26497e-05
*RES
1 *1589:LO *28:6 38 
2 *28:6 uio_oe[6] 39.355 
*END

*D_NET *29 0.00685218
*CONN
*P uio_oe[7] O
*I *1597:HI O *D sky130_fd_sc_hd__conb_1
*CAP
1 uio_oe[7] 0.000183989
2 *1597:HI 0.000714124
3 *29:18 0.00156093
4 *29:8 0.00209107
5 *29:8 *1179:B 8.7769e-05
6 *29:8 *461:39 0.000363095
7 *29:8 *473:19 0.00016279
8 *29:8 *473:35 0
9 *29:18 *1328:A0 0.000118174
10 *29:18 *109:10 0.000271392
11 *29:18 *256:18 1.76043e-05
12 *29:18 *457:79 0.000214465
13 *29:18 *461:54 0
14 *29:18 *471:8 1.05235e-05
15 *29:18 *471:21 0.000191157
16 *29:18 *471:32 2.46922e-05
17 *29:18 *473:19 0.000173664
18 *29:18 *473:35 0.000566278
19 uio_oe[6] uio_oe[7] 9.84196e-05
20 *26:6 *29:18 2.03764e-06
*RES
1 *1597:HI *29:8 35.7911 
2 *29:8 *29:18 44.8282 
3 *29:18 uio_oe[7] 8.6328 
*END

*D_NET *30 0.00157434
*CONN
*P uio_out[0] O
*I *1590:LO O *D sky130_fd_sc_hd__conb_1
*CAP
1 uio_out[0] 0.000360635
2 *1590:LO 0.000274007
3 *30:12 0.000634643
4 uio_out[0] uio_out[1] 8.63649e-05
5 uio_out[0] uo_out[7] 8.37912e-05
6 uio_out[0] *45:12 2.51662e-05
7 *30:12 *1186:A 8.6058e-05
8 *30:12 *32:8 2.45549e-06
9 *30:12 *461:81 2.12147e-05
10 *30:12 *470:54 0
*RES
1 *1590:LO *30:12 43.1268 
2 *30:12 uio_out[0] 17.12 
*END

*D_NET *31 0.00187528
*CONN
*P uio_out[1] O
*I *1591:LO O *D sky130_fd_sc_hd__conb_1
*CAP
1 uio_out[1] 0.000398251
2 *1591:LO 0.0003105
3 *31:10 0.000708751
4 uio_out[1] uio_out[2] 5.69214e-05
5 uio_out[1] uio_out[3] 0
6 uio_out[1] uo_out[7] 0
7 *31:10 *1468:CLK 2.24608e-05
8 *31:10 *1549:A 0.000271476
9 *31:10 *461:81 2.05503e-05
10 uio_out[0] uio_out[1] 8.63649e-05
*RES
1 *1591:LO *31:10 42.7539 
2 *31:10 uio_out[1] 17.1125 
*END

*D_NET *32 0.00304244
*CONN
*P uio_out[2] O
*I *1592:LO O *D sky130_fd_sc_hd__conb_1
*CAP
1 uio_out[2] 0.000453067
2 *1592:LO 0.000825967
3 *32:8 0.00127903
4 uio_out[2] uio_out[3] 5.89674e-05
5 uio_out[2] *1428:RESET_B 0
6 uio_out[2] *1468:CLK 0
7 uio_out[2] *262:8 1.90767e-05
8 uio_out[2] *461:81 0
9 uio_out[2] *470:54 0
10 *32:8 *457:188 3.22879e-05
11 *32:8 *467:10 0.000226926
12 *32:8 *603:54 8.77417e-05
13 uio_out[1] uio_out[2] 5.69214e-05
14 *30:12 *32:8 2.45549e-06
*RES
1 *1592:LO *32:8 49.5793 
2 *32:8 uio_out[2] 19.4357 
*END

*D_NET *33 0.00271276
*CONN
*P uio_out[3] O
*I *1593:LO O *D sky130_fd_sc_hd__conb_1
*CAP
1 uio_out[3] 0.000503241
2 *1593:LO 0.000406521
3 *33:8 0.000909762
4 uio_out[3] uio_out[4] 0.000160658
5 uio_out[3] uio_out[6] 0
6 uio_out[3] *474:39 0
7 *33:8 *1428:RESET_B 0
8 *33:8 *105:8 0
9 *33:8 *173:47 0.000151991
10 *33:8 *456:133 0
11 *33:8 *456:144 0
12 *33:8 *465:16 0.000190607
13 *33:8 *474:39 0.000331016
14 uio_out[1] uio_out[3] 0
15 uio_out[2] uio_out[3] 5.89674e-05
*RES
1 *1593:LO *33:8 47.4768 
2 *33:8 uio_out[3] 17.7509 
*END

*D_NET *34 0.00269291
*CONN
*P uio_out[4] O
*I *1594:LO O *D sky130_fd_sc_hd__conb_1
*CAP
1 uio_out[4] 0.000571972
2 *1594:LO 0.000236852
3 *34:10 0.000808824
4 uio_out[4] uio_out[5] 0.0004202
5 uio_out[4] uio_out[6] 1.87233e-05
6 uio_out[4] *260:24 0
7 *34:10 uio_out[5] 5.02657e-05
8 *34:10 *1195:B 2.1819e-05
9 *34:10 *35:14 0.000356031
10 *34:10 *106:10 4.75704e-05
11 uio_out[3] uio_out[4] 0.000160658
*RES
1 *1594:LO *34:10 43.1061 
2 *34:10 uio_out[4] 18.0571 
*END

*D_NET *35 0.0045181
*CONN
*P uio_out[5] O
*I *1595:LO O *D sky130_fd_sc_hd__conb_1
*CAP
1 uio_out[5] 0.000428807
2 *1595:LO 0.000720244
3 *35:14 0.00114905
4 uio_out[5] uio_out[6] 0.000142657
5 uio_out[5] *1433:RESET_B 2.91826e-05
6 uio_out[5] *106:10 3.02074e-05
7 uio_out[5] *260:24 0
8 uio_out[5] *598:40 2.05503e-05
9 *35:14 *1170:B 3.61747e-05
10 *35:14 *1188:A 6.69705e-05
11 *35:14 *1188:B 0.000100061
12 *35:14 *1192:A 5.68958e-05
13 *35:14 *1192:B 2.64616e-05
14 *35:14 *1195:B 5.56356e-05
15 *35:14 *263:8 0.000552717
16 *35:14 *264:10 0.000275993
17 uio_out[4] uio_out[5] 0.0004202
18 *34:10 uio_out[5] 5.02657e-05
19 *34:10 *35:14 0.000356031
*RES
1 *1595:LO *35:14 40.6279 
2 *35:14 uio_out[5] 34.2304 
*END

*D_NET *36 0.00415139
*CONN
*P uio_out[6] O
*I *1596:LO O *D sky130_fd_sc_hd__conb_1
*CAP
1 uio_out[6] 0.0010778
2 *1596:LO 0.000187637
3 *36:8 0.00126544
4 uio_out[6] uio_out[7] 0.000218024
5 uio_out[6] *1196:A 0
6 uio_out[6] *1240:A1 7.76364e-06
7 uio_out[6] *1240:A2 5.94125e-05
8 uio_out[6] *1433:RESET_B 0
9 uio_out[6] *1437:RESET_B 0.00038558
10 uio_out[6] *178:8 9.80568e-05
11 uio_out[6] *260:24 0
12 uio_out[6] *266:10 6.97776e-05
13 uio_out[6] *318:22 6.52821e-05
14 uio_out[6] *464:8 9.43667e-05
15 uio_out[6] *467:24 9.4412e-05
16 uio_out[6] *468:10 0
17 uio_out[6] *486:10 1.02561e-05
18 uio_out[6] *598:40 2.47304e-05
19 *36:8 *1079:A2 9.84794e-05
20 *36:8 *1240:B1 2.64616e-05
21 *36:8 *176:58 1.78258e-05
22 *36:8 *304:10 0.000139357
23 *36:8 *304:28 4.9346e-05
24 uio_out[3] uio_out[6] 0
25 uio_out[4] uio_out[6] 1.87233e-05
26 uio_out[5] uio_out[6] 0.000142657
*RES
1 *1596:LO *36:8 41.9564 
2 *36:8 uio_out[6] 31.2817 
*END

*D_NET *37 0.00338446
*CONN
*P uio_out[7] O
*I *1496:X O *D sky130_fd_sc_hd__buf_2
*CAP
1 uio_out[7] 0.00022099
2 *1496:X 0.000271401
3 *37:26 0.00066164
4 *37:14 0.000712052
5 *37:14 *392:10 9.28078e-06
6 *37:14 *457:20 0.000144494
7 *37:14 *457:33 0
8 *37:14 *568:46 7.60871e-06
9 *37:26 *1174:B 5.54782e-05
10 *37:26 *1342:B1 0.000383169
11 *37:26 *1433:RESET_B 0
12 *37:26 *107:10 0
13 *37:26 *255:20 0.000100803
14 *37:26 *391:10 9.21347e-06
15 *37:26 *392:10 3.28384e-05
16 *37:26 *457:20 9.67842e-05
17 *37:26 *462:50 1.23662e-05
18 *37:26 *568:46 8.51378e-05
19 *37:26 *598:40 4.25785e-05
20 uio_oe[0] uio_out[7] 0.000320605
21 uio_out[6] uio_out[7] 0.000218024
*RES
1 *1496:X *37:14 41.6664 
2 *37:14 *37:26 46.6466 
3 *37:26 uio_out[7] 9.3944 
*END

*D_NET *38 0.00134017
*CONN
*P uo_out[0] O
*I *1473:Q O *D sky130_fd_sc_hd__dfxtp_2
*CAP
1 uo_out[0] 0.000174241
2 *1473:Q 0.00048171
3 *38:12 0.000655951
4 uo_out[0] uo_out[1] 1.74644e-05
5 uo_out[0] uo_out[3] 0
6 *38:12 *426:18 9.51819e-07
7 *38:12 *429:26 0
8 *38:12 *432:26 0
9 *38:12 *458:16 9.85586e-06
*RES
1 *1473:Q *38:12 47.2787 
2 *38:12 uo_out[0] 8.50587 
*END

*D_NET *39 0.00115951
*CONN
*P uo_out[1] O
*I *1471:Q O *D sky130_fd_sc_hd__dfxtp_2
*CAP
1 uo_out[1] 0.000163787
2 *1471:Q 0.000327466
3 *39:10 0.000491253
4 uo_out[1] uo_out[2] 1.74644e-05
5 *39:10 *1498:A 5.79559e-05
6 *39:10 *40:12 8.41241e-05
7 *39:10 *79:8 0
8 uo_out[0] uo_out[1] 1.74644e-05
*RES
1 *1471:Q *39:10 43.8725 
2 *39:10 uo_out[1] 16.3957 
*END

*D_NET *40 0.000608986
*CONN
*P uo_out[2] O
*I *1469:Q O *D sky130_fd_sc_hd__dfxtp_2
*CAP
1 uo_out[2] 2.3085e-05
2 *1469:Q 0.000219387
3 *40:12 0.000242472
4 uo_out[2] uo_out[3] 2.24522e-05
5 uo_out[1] uo_out[2] 1.74644e-05
6 *39:10 *40:12 8.41241e-05
*RES
1 *1469:Q *40:12 48.6187 
2 *40:12 uo_out[2] 8.12507 
*END

*D_NET *41 0.00192749
*CONN
*P uo_out[3] O
*I *1497:X O *D sky130_fd_sc_hd__buf_2
*CAP
1 uo_out[3] 0.000389745
2 *1497:X 0.000394535
3 *41:10 0.00078428
4 uo_out[3] uo_out[4] 8.175e-05
5 uo_out[3] *42:12 7.51535e-06
6 uo_out[3] *426:18 4.18138e-05
7 *41:10 *1473:CLK 5.73309e-05
8 *41:10 *1497:A 0.000148065
9 uo_out[0] uo_out[3] 0
10 uo_out[2] uo_out[3] 2.24522e-05
*RES
1 *1497:X *41:10 43.7068 
2 *41:10 uo_out[3] 17.12 
*END

*D_NET *42 0.000810481
*CONN
*P uo_out[4] O
*I *1472:Q O *D sky130_fd_sc_hd__dfxtp_2
*CAP
1 uo_out[4] 0.000206317
2 *1472:Q 5.33056e-05
3 *42:12 0.000259623
4 uo_out[4] uo_out[5] 0.000167693
5 *42:12 *429:26 9.58483e-06
6 *42:12 *456:158 2.46922e-05
7 uo_out[3] uo_out[4] 8.175e-05
8 uo_out[3] *42:12 7.51535e-06
*RES
1 *1472:Q *42:12 46.42 
2 *42:12 uo_out[4] 9.0136 
*END

*D_NET *43 0.00174852
*CONN
*P uo_out[5] O
*I *1470:Q O *D sky130_fd_sc_hd__dfxtp_2
*CAP
1 uo_out[5] 0.00039795
2 *1470:Q 0.000262666
3 *43:12 0.000660615
4 uo_out[5] uo_out[6] 8.175e-05
5 uo_out[5] uo_out[7] 0
6 *43:12 *1385:A 0
7 *43:12 *78:10 2.2781e-05
8 *43:12 *429:26 0.000155062
9 uo_out[4] uo_out[5] 0.000167693
*RES
1 *1470:Q *43:12 47.5536 
2 *43:12 uo_out[5] 9.3944 
*END

*D_NET *44 0.000620108
*CONN
*P uo_out[6] O
*I *1468:Q O *D sky130_fd_sc_hd__dfxtp_2
*CAP
1 uo_out[6] 6.66159e-05
2 *1468:Q 0.000160215
3 *44:12 0.000226831
4 uo_out[6] uo_out[7] 8.46966e-05
5 *44:12 *429:26 0
6 uo_out[5] uo_out[6] 8.175e-05
*RES
1 *1468:Q *44:12 46.6776 
2 *44:12 uo_out[6] 8.50587 
*END

*D_NET *45 0.00126689
*CONN
*P uo_out[7] O
*I *1498:X O *D sky130_fd_sc_hd__buf_2
*CAP
1 uo_out[7] 0.00024003
2 *1498:X 0.000262953
3 *45:12 0.000502983
4 *45:12 *429:26 4.46864e-05
5 *45:12 *458:22 9.85586e-06
6 *45:12 *471:52 1.27321e-05
7 uio_out[0] uo_out[7] 8.37912e-05
8 uio_out[0] *45:12 2.51662e-05
9 uio_out[1] uo_out[7] 0
10 uo_out[5] uo_out[7] 0
11 uo_out[6] uo_out[7] 8.46966e-05
*RES
1 *1498:X *45:12 47.0211 
2 *45:12 uo_out[7] 9.0136 
*END

*D_NET *46 0.00969053
*CONN
*I *645:GATE I *D sky130_fd_sc_hd__dlclkp_2
*I *1082:X O *D sky130_fd_sc_hd__and4b_2
*CAP
1 *645:GATE 0
2 *1082:X 0.000253494
3 *46:30 0.00111974
4 *46:20 0.00196537
5 *46:12 0.00109913
6 *46:12 *1082:A_N 3.7681e-05
7 *46:12 *354:27 3.18198e-05
8 *46:12 *359:10 0.000264564
9 *46:12 *456:48 2.51583e-05
10 *46:12 *486:37 6.82693e-05
11 *46:12 *486:50 0.000137651
12 *46:12 *545:27 0.000260579
13 *46:12 *548:25 3.95159e-06
14 *46:12 *551:21 0.000105947
15 *46:12 *551:38 5.64582e-05
16 *46:20 *354:27 0.000902959
17 *46:20 *456:48 1.22822e-05
18 *46:20 *456:52 0.000128885
19 *46:20 *548:8 0.000177604
20 *46:20 *637:10 7.57281e-06
21 *46:30 *144:10 9.85586e-06
22 *46:30 *144:26 4.01987e-05
23 *46:30 *442:20 0.000583516
24 *46:30 *474:39 2.46922e-05
25 *46:30 *486:20 0.00237315
*RES
1 *1082:X *46:12 45.1671 
2 *46:12 *46:20 46.6439 
3 *46:20 *46:30 35.8421 
4 *46:30 *645:GATE 23 
*END

*D_NET *47 0.00291737
*CONN
*I *1419:GATE I *D sky130_fd_sc_hd__dlclkp_2
*I *1086:X O *D sky130_fd_sc_hd__and2b_2
*CAP
1 *1419:GATE 0
2 *1086:X 0.000952102
3 *47:12 5.88238e-05
4 *47:6 0.00101093
5 *47:6 *1121:A 0.000144501
6 *47:6 *1296:A_N 7.88828e-05
7 *47:6 *1296:C 0.000204558
8 *47:6 *1298:B 3.29546e-05
9 *47:6 *1298:D 7.51453e-06
10 *47:6 *1353:A 0.000131547
11 *47:6 *215:25 9.91024e-05
12 *47:6 *478:28 3.6883e-05
13 *47:6 *516:72 5.56279e-05
14 *47:12 *1298:C 8.27285e-05
15 *47:12 *354:10 2.12178e-05
*RES
1 *1086:X *47:6 36.9614 
2 *47:6 *47:12 31.2014 
3 *47:12 *1419:GATE 23 
*END

*D_NET *48 0.00189611
*CONN
*I *1457:D I *D sky130_fd_sc_hd__dfstp_2
*I *1150:Y O *D sky130_fd_sc_hd__nand2_2
*CAP
1 *1457:D 0
2 *1150:Y 0.000493461
3 *48:10 0.000493461
4 *48:10 *1457:SET_B 3.44383e-05
5 *48:10 *475:8 0.000470937
6 *48:10 *475:44 5.67058e-05
7 *48:10 *475:53 0.000347108
*RES
1 *1150:Y *48:10 35.6979 
2 *48:10 *1457:D 23 
*END

*D_NET *49 0.00101951
*CONN
*I *1467:D I *D sky130_fd_sc_hd__dfrtp_2
*I *1169:X O *D sky130_fd_sc_hd__and2_2
*CAP
1 *1467:D 0
2 *1169:X 0.000338883
3 *49:6 0.000338883
4 *49:6 *1169:A 5.3304e-05
5 *49:6 *1169:B 0.000209559
6 *49:6 *448:52 7.88828e-05
*RES
1 *1169:X *49:6 29.3386 
2 *49:6 *1467:D 23 
*END

*D_NET *50 0.00148841
*CONN
*I *1458:D I *D sky130_fd_sc_hd__dfstp_2
*I *1152:Y O *D sky130_fd_sc_hd__o21ai_2
*CAP
1 *1458:D 5.69049e-05
2 *1152:Y 0.000350197
3 *50:8 0.000407102
4 *1458:D *1458:SET_B 3.71369e-05
5 *50:8 *1150:B 0
6 *50:8 *1458:SET_B 0.000108506
7 *50:8 *51:10 6.68587e-05
8 *50:8 *236:10 0.000316977
9 *50:8 *477:26 6.10508e-05
10 *50:8 *600:38 3.26003e-05
11 *50:8 *600:40 5.10756e-05
*RES
1 *1152:Y *50:8 45.8921 
2 *50:8 *1458:D 39.0979 
*END

*D_NET *51 0.000593227
*CONN
*I *1459:D I *D sky130_fd_sc_hd__dfstp_2
*I *1154:Y O *D sky130_fd_sc_hd__o21ai_2
*CAP
1 *1459:D 0
2 *1154:Y 0.000145895
3 *51:10 0.000145895
4 *51:10 *1155:B 9.58714e-05
5 *51:10 *600:38 0.000138708
6 *50:8 *51:10 6.68587e-05
*RES
1 *1154:Y *51:10 41.0036 
2 *51:10 *1459:D 38 
*END

*D_NET *52 0.00138139
*CONN
*I *1460:D I *D sky130_fd_sc_hd__dfrtp_2
*I *1156:Y O *D sky130_fd_sc_hd__nor2_2
*CAP
1 *1460:D 0
2 *1156:Y 0.000486019
3 *52:6 0.000486019
4 *52:6 *1460:RESET_B 9.98797e-05
5 *52:6 *238:60 0.000241611
6 *52:6 *479:84 3.84903e-05
7 *52:6 *600:6 2.93747e-05
*RES
1 *1156:Y *52:6 33.15 
2 *52:6 *1460:D 23 
*END

*D_NET *53 0.00124521
*CONN
*I *1461:D I *D sky130_fd_sc_hd__dfrtp_2
*I *1157:X O *D sky130_fd_sc_hd__xor2_2
*CAP
1 *1461:D 0
2 *1157:X 0.000220054
3 *53:10 0.000220054
4 *53:10 *1144:C 0.000165849
5 *53:10 *1462:CLK 0.00023005
6 *53:10 *448:75 0.0001884
7 *53:10 *480:27 4.96717e-05
8 *53:10 *557:28 0.000171135
*RES
1 *1157:X *53:10 44.1729 
2 *53:10 *1461:D 38 
*END

*D_NET *54 0.00094668
*CONN
*I *1462:D I *D sky130_fd_sc_hd__dfstp_2
*I *1159:Y O *D sky130_fd_sc_hd__o21ai_2
*CAP
1 *1462:D 0
2 *1159:Y 0.000215922
3 *54:8 0.000215922
4 *54:8 *1463:RESET_B 7.43183e-05
5 *54:8 *1570:A 6.51983e-05
6 *54:8 *248:8 0.000361506
7 *54:8 *526:10 1.38134e-05
8 *54:8 *557:28 0
*RES
1 *1159:Y *54:8 43.075 
2 *54:8 *1462:D 38 
*END

*D_NET *55 0.00247012
*CONN
*I *1463:D I *D sky130_fd_sc_hd__dfrtp_2
*I *1161:Y O *D sky130_fd_sc_hd__nor2_2
*CAP
1 *1463:D 0
2 *1161:Y 0.000130689
3 *55:12 0.000894582
4 *55:8 0.00102527
5 *55:8 *1058:A1 0.000188301
6 *55:12 *1043:A2 0
7 *55:12 *1463:CLK 0
8 *55:12 *1464:SET_B 0
9 *55:12 *1467:RESET_B 1.05658e-05
10 *55:12 *152:35 6.41707e-05
11 *55:12 *154:8 0
12 *55:12 *156:18 5.23455e-05
13 *55:12 *161:10 1.59486e-05
14 *55:12 *240:42 4.6318e-06
15 *55:12 *448:45 0
16 *55:12 *480:41 0
17 *55:12 *482:20 0
18 *55:12 *559:33 8.36165e-05
*RES
1 *1161:Y *55:8 40.0507 
2 *55:8 *55:12 28.5264 
3 *55:12 *1463:D 23 
*END

*D_NET *56 0.000805604
*CONN
*I *1464:D I *D sky130_fd_sc_hd__dfstp_2
*I *1163:X O *D sky130_fd_sc_hd__a22o_2
*CAP
1 *1464:D 2.83571e-05
2 *1163:X 0.000174119
3 *56:10 0.000202476
4 *1464:D *197:26 1.94812e-05
5 *1464:D *448:41 2.64616e-05
6 *56:10 *1168:A 9.77241e-05
7 *56:10 *197:10 0.000128492
8 *56:10 *244:29 0.000128492
*RES
1 *1163:X *56:10 41.045 
2 *56:10 *1464:D 38.6214 
*END

*D_NET *57 0.00290592
*CONN
*I *1465:D I *D sky130_fd_sc_hd__dfstp_2
*I *1165:Y O *D sky130_fd_sc_hd__o21ai_2
*CAP
1 *1465:D 0
2 *1165:Y 0.000935771
3 *57:18 9.46558e-05
4 *57:12 0.00103043
5 *57:12 *1092:A 1.94693e-05
6 *57:12 *1092:B 0.000114856
7 *57:12 *1147:A 2.13733e-05
8 *57:12 *1164:A2 7.44161e-06
9 *57:12 *189:12 0.000137651
10 *57:12 *244:48 3.84128e-05
11 *57:12 *483:57 0.000356724
12 *57:18 *448:17 7.57389e-05
13 *57:18 *517:70 7.33973e-05
*RES
1 *1165:Y *57:12 36.6714 
2 *57:12 *57:18 32.2579 
3 *57:18 *1465:D 23 
*END

*D_NET *58 0.00158787
*CONN
*I *1466:D I *D sky130_fd_sc_hd__dfrtp_2
*I *1167:Y O *D sky130_fd_sc_hd__nor2_2
*CAP
1 *1466:D 0
2 *1167:Y 0.000363816
3 *58:6 0.000363816
4 *58:6 *1466:RESET_B 4.65845e-05
5 *58:6 *197:26 0.00042862
6 *58:6 *448:30 0.000288248
7 *58:6 *485:8 9.67842e-05
*RES
1 *1167:Y *58:6 33.15 
2 *58:6 *1466:D 23 
*END

*D_NET *59 0.0028863
*CONN
*I *1439:D I *D sky130_fd_sc_hd__dfrtp_2
*I *1005:Y O *D sky130_fd_sc_hd__inv_2
*CAP
1 *1439:D 0
2 *1005:Y 0
3 *59:16 0.000620411
4 *59:6 0.000620411
5 *59:16 *61:10 0
6 *59:16 *62:8 0.00010404
7 *59:16 *126:8 0.000381028
8 *59:16 *137:24 7.99547e-05
9 *59:16 *139:10 0.000351617
10 *59:16 *139:21 0.000168744
11 *59:16 *311:34 0.000171906
12 *59:16 *322:24 0
13 *59:16 *323:22 0.000233024
14 *59:16 *449:56 0.000155159
*RES
1 *1005:Y *59:6 38 
2 *59:6 *59:16 33.0836 
3 *59:16 *1439:D 23 
*END

*D_NET *60 0.000353638
*CONN
*I *1440:D I *D sky130_fd_sc_hd__dfrtp_2
*I *1023:X O *D sky130_fd_sc_hd__xor2_2
*CAP
1 *1440:D 6.88432e-05
2 *1023:X 6.88432e-05
3 *1440:D *1440:RESET_B 2.93335e-05
4 *1440:D *321:18 0.000139706
5 *1440:D *449:44 2.7443e-05
6 *1440:D *449:46 1.94693e-05
*RES
1 *1023:X *1440:D 48.0507 
*END

*D_NET *61 0.00160535
*CONN
*I *1441:D I *D sky130_fd_sc_hd__dfrtp_2
*I *1026:Y O *D sky130_fd_sc_hd__nor2_2
*CAP
1 *1441:D 4.54044e-05
2 *1026:Y 0.000516505
3 *61:10 0.000561909
4 *1441:D *491:10 2.64616e-05
5 *61:10 *1579:clk 0
6 *61:10 *1581:B 5.68958e-05
7 *61:10 *138:22 0.000109892
8 *61:10 *449:56 0
9 *61:10 *489:10 0.000127705
10 *61:10 *489:28 0.000160582
11 *59:16 *61:10 0
*RES
1 *1026:Y *61:10 48.0671 
2 *61:10 *1441:D 38.6214 
*END

*D_NET *62 0.00187703
*CONN
*I *1442:D I *D sky130_fd_sc_hd__dfrtp_2
*I *1029:Y O *D sky130_fd_sc_hd__nor2_2
*CAP
1 *1442:D 8.28872e-05
2 *1029:Y 0.000359945
3 *62:8 0.000442832
4 *1442:D *1252:B 0.000193916
5 *1442:D *1442:CLK 8.47233e-05
6 *1442:D *314:10 2.94066e-05
7 *62:8 *1442:CLK 0
8 *62:8 *1445:CLK 0
9 *62:8 *139:21 1.62615e-05
10 *62:8 *139:32 9.64022e-05
11 *62:8 *311:34 0.000169665
12 *62:8 *323:22 0.000296947
13 *62:8 *449:121 0
14 *59:16 *62:8 0.00010404
*RES
1 *1029:Y *62:8 46.2443 
2 *62:8 *1442:D 41.1693 
*END

*D_NET *63 0.000725714
*CONN
*I *1443:D I *D sky130_fd_sc_hd__dfrtp_2
*I *1030:Y O *D sky130_fd_sc_hd__xnor2_2
*CAP
1 *1443:D 5.90245e-05
2 *1030:Y 0.000116402
3 *63:8 0.000175427
4 *1443:D *1032:B1 7.51453e-06
5 *1443:D *311:34 0.000130968
6 *1443:D *493:6 7.71199e-05
7 *63:8 *1032:B1 0
8 *63:8 *312:35 0.000159259
*RES
1 *1030:Y *63:8 40.2579 
2 *63:8 *1443:D 40.5271 
*END

*D_NET *64 0.0156318
*CONN
*I *1444:D I *D sky130_fd_sc_hd__dfrtp_2
*I *638:DIODE I *D sky130_fd_sc_hd__diode_2
*I *1033:Y O *D sky130_fd_sc_hd__nor2_2
*CAP
1 *1444:D 0
2 *638:DIODE 0.000395045
3 *1033:Y 0.000302064
4 *64:32 0.000395045
5 *64:30 0.00279781
6 *64:14 0.00309987
7 *638:DIODE *449:115 0.000189155
8 *638:DIODE *449:119 0.000194912
9 *638:DIODE *494:16 3.42398e-05
10 *638:DIODE *494:25 2.812e-05
11 *64:14 *1098:B 0.000204617
12 *64:14 *1280:B 0
13 *64:14 *456:212 4.77883e-05
14 *64:14 *472:50 0
15 *64:14 *580:34 5.25022e-05
16 *64:14 *630:62 0.00010944
17 *64:30 *143:32 0.00379176
18 *64:30 *173:22 0.000163908
19 *64:30 *211:24 0.000110314
20 *64:30 *257:30 2.11066e-05
21 *64:30 *259:24 8.89969e-05
22 *64:30 *275:14 0.000765099
23 *64:30 *277:25 0.000215229
24 *64:30 *287:41 3.57972e-05
25 *64:30 *307:53 0.000296646
26 *64:30 *460:34 0.000963903
27 *64:30 *461:97 0.000195923
28 *64:30 *492:37 6.84987e-06
29 *64:30 *584:70 0.000171213
30 *64:30 *620:30 0.000177152
31 *64:30 *624:59 8.56952e-06
32 *64:30 *626:28 0.000768696
*RES
1 *1033:Y *64:14 43.9554 
2 *64:14 *64:30 42.6288 
3 *64:30 *64:32 15 
4 *64:32 *638:DIODE 31.7207 
5 *64:32 *1444:D 23 
*END

*D_NET *65 0.00228162
*CONN
*I *1445:D I *D sky130_fd_sc_hd__dfrtp_2
*I *1036:X O *D sky130_fd_sc_hd__and2_2
*CAP
1 *1445:D 0.000118456
2 *1036:X 0.000450921
3 *65:10 0.000569377
4 *1445:D *1445:CLK 5.40241e-05
5 *1445:D *141:6 9.43689e-05
6 *1445:D *494:16 9.77405e-05
7 *65:10 *130:32 0
8 *65:10 *140:12 0.000772143
9 *65:10 *143:32 0
10 *65:10 *144:26 0.000108713
11 *65:10 *494:16 1.58805e-05
12 *65:10 *566:26 0
*RES
1 *1036:X *65:10 48.9786 
2 *65:10 *1445:D 41.0036 
*END

*D_NET *66 0.000285089
*CONN
*I *1446:D I *D sky130_fd_sc_hd__dfrtp_2
*I *1037:Y O *D sky130_fd_sc_hd__xnor2_2
*CAP
1 *1446:D 5.68646e-05
2 *1037:Y 5.68646e-05
3 *1446:D *1037:A 0.000101947
4 *1446:D *276:16 6.94132e-05
*RES
1 *1037:Y *1446:D 48.0507 
*END

*D_NET *67 0.00108468
*CONN
*I *1447:D I *D sky130_fd_sc_hd__dfxtp_2
*I *1221:X O *D sky130_fd_sc_hd__and3_2
*CAP
1 *1447:D 5.48656e-06
2 *1221:X 0.000220869
3 *67:8 0.000226356
4 *1447:D *306:32 7.10068e-06
5 *1447:D *449:22 1.64354e-05
6 *67:8 *141:28 0.000146083
7 *67:8 *141:34 0.00017653
8 *67:8 *173:10 0.000248559
9 *67:8 *286:10 3.72639e-05
*RES
1 *1221:X *67:8 42.7229 
2 *67:8 *1447:D 38.1916 
*END

*D_NET *68 0.00070673
*CONN
*I *1448:D I *D sky130_fd_sc_hd__dfxtp_2
*I *1227:X O *D sky130_fd_sc_hd__and3b_2
*CAP
1 *1448:D 9.59678e-05
2 *1227:X 8.42935e-05
3 *68:8 0.000180261
4 *1448:D *1226:A1 2.4754e-05
5 *1448:D *1448:CLK 5.67058e-05
6 *1448:D *132:10 2.04611e-05
7 *68:8 *279:10 5.72953e-05
8 *68:8 *449:234 0.000161648
9 *68:8 *602:73 2.5343e-05
*RES
1 *1227:X *68:8 40.2579 
2 *68:8 *1448:D 39.8902 
*END

*D_NET *69 0.000687493
*CONN
*I *1449:D I *D sky130_fd_sc_hd__dfxtp_2
*I *1234:X O *D sky130_fd_sc_hd__and3_2
*CAP
1 *1449:D 6.7202e-06
2 *1234:X 0.000147554
3 *69:10 0.000154274
4 *1449:D *280:62 1.74843e-05
5 *1449:D *294:16 4.9054e-06
6 *69:10 *299:20 5.3304e-05
7 *69:10 *473:65 0.000150509
8 *69:10 *602:94 0.000152741
*RES
1 *1234:X *69:10 40.8793 
2 *69:10 *1449:D 38.1916 
*END

*D_NET *70 0.00174699
*CONN
*I *1450:D I *D sky130_fd_sc_hd__dfxtp_2
*I *1241:X O *D sky130_fd_sc_hd__and3_2
*CAP
1 *1450:D 0.000131281
2 *1241:X 0.000284529
3 *70:10 0.00041581
4 *1450:D *1239:A 7.59794e-05
5 *1450:D *1239:B 0.000262864
6 *1450:D *570:47 0.000137719
7 *70:10 *143:24 9.18008e-05
8 *70:10 *294:22 8.4824e-05
9 *70:10 *295:12 5.99934e-05
10 *70:10 *299:20 0.000138607
11 *70:10 *569:67 6.35871e-05
*RES
1 *1241:X *70:10 42.8886 
2 *70:10 *1450:D 41.7959 
*END

*D_NET *71 0.00123875
*CONN
*I *1451:D I *D sky130_fd_sc_hd__dfxtp_2
*I *1248:X O *D sky130_fd_sc_hd__and3_2
*CAP
1 *1451:D 9.26771e-06
2 *1248:X 0.000268366
3 *71:10 0.000277633
4 *1451:D *1112:A 1.64354e-05
5 *1451:D *209:10 4.9054e-06
6 *71:10 *1108:A1 4.81724e-05
7 *71:10 *1221:A 5.67058e-05
8 *71:10 *1248:C 0.000196104
9 *71:10 *307:53 0.000195952
10 *71:10 *309:10 4.62166e-06
11 *71:10 *310:22 0.000160591
*RES
1 *1248:X *71:10 43.6964 
2 *71:10 *1451:D 38.1916 
*END

*D_NET *72 0.00307601
*CONN
*I *1452:D I *D sky130_fd_sc_hd__dfxtp_2
*I *1255:X O *D sky130_fd_sc_hd__and3b_2
*CAP
1 *1452:D 0.000381603
2 *1255:X 0.00058093
3 *72:16 0.000962533
4 *1452:D *1452:CLK 0.000304496
5 *1452:D *314:39 5.3304e-05
6 *1452:D *335:18 0.000139035
7 *72:16 *203:16 6.83176e-05
8 *72:16 *314:39 3.18198e-05
9 *72:16 *315:10 8.25782e-05
10 *72:16 *502:10 4.59426e-05
11 *72:16 *562:51 3.91934e-05
12 *72:16 *599:18 0.000386257
*RES
1 *1255:X *72:16 46.7829 
2 *72:16 *1452:D 44.0745 
*END

*D_NET *73 0.000363471
*CONN
*I *1453:D I *D sky130_fd_sc_hd__dfxtp_2
*I *1264:X O *D sky130_fd_sc_hd__and3_2
*CAP
1 *1453:D 4.62744e-06
2 *1264:X 9.82828e-05
3 *73:8 0.00010291
4 *1453:D *1453:CLK 1.74843e-05
5 *1453:D *321:33 1.64354e-05
6 *73:8 *324:10 1.74874e-06
7 *73:8 *324:14 2.04458e-05
8 *73:8 *449:94 9.28078e-06
9 *73:8 *449:111 9.22555e-05
*RES
1 *1264:X *73:8 39.5536 
2 *73:8 *1453:D 38.1916 
*END

*D_NET *74 0.000916579
*CONN
*I *1454:D I *D sky130_fd_sc_hd__dfxtp_2
*I *1270:X O *D sky130_fd_sc_hd__o21a_2
*CAP
1 *1454:D 1.55139e-05
2 *1270:X 0.000266331
3 *74:8 0.000281845
4 *1454:D *134:14 5.92579e-05
5 *1454:D *258:66 5.92579e-05
6 *74:8 *327:10 0
7 *74:8 *328:14 0.000159123
8 *74:8 *449:83 1.6844e-05
9 *74:8 *595:12 4.77164e-06
10 *74:8 *595:41 3.56594e-05
11 *74:8 *596:12 1.79749e-05
*RES
1 *1270:X *74:8 42.3707 
2 *74:8 *1454:D 38.668 
*END

*D_NET *75 0.00122966
*CONN
*I *1455:D I *D sky130_fd_sc_hd__dfxtp_2
*I *1278:X O *D sky130_fd_sc_hd__and3_2
*CAP
1 *1455:D 4.47096e-05
2 *1278:X 0.000284144
3 *75:8 0.000328853
4 *1455:D *449:36 0.000143599
5 *1455:D *595:41 5.46212e-05
6 *75:8 *1089:B 0.000121976
7 *75:8 *179:14 1.38235e-05
8 *75:8 *258:44 2.90698e-05
9 *75:8 *335:24 4.77164e-06
10 *75:8 *562:28 1.43063e-05
11 *75:8 *580:22 4.24694e-06
12 *75:8 *596:45 0.000153052
13 *75:8 *629:43 3.24898e-05
*RES
1 *1278:X *75:8 42.7229 
2 *75:8 *1455:D 39.6209 
*END

*D_NET *76 0.0016846
*CONN
*I *1456:D I *D sky130_fd_sc_hd__dfxtp_2
*I *1283:X O *D sky130_fd_sc_hd__and3_2
*CAP
1 *1456:D 5.48656e-06
2 *1283:X 0.00042186
3 *76:10 0.000427346
4 *1456:D *258:44 1.64354e-05
5 *1456:D *595:41 7.10068e-06
6 *76:10 *1104:B 0.000150821
7 *76:10 *201:14 0.000309665
8 *76:10 *306:32 0.000175903
9 *76:10 *564:10 0.000169981
*RES
1 *1283:X *76:10 44.7736 
2 *76:10 *1456:D 38.1916 
*END

*D_NET *77 0.00243817
*CONN
*I *1476:D I *D sky130_fd_sc_hd__dfxtp_2
*I *1285:X O *D sky130_fd_sc_hd__and2_2
*CAP
1 *1476:D 0.000241431
2 *1285:X 0.000432027
3 *77:10 0.000673458
4 *1476:D *1488:CLK 0.000491395
5 *77:10 *424:28 0.000153335
6 *77:10 *508:18 7.98243e-05
7 *77:10 *508:109 0.000103653
8 *77:10 *534:8 0.000226306
9 *12:15 *77:10 3.67406e-05
*RES
1 *1285:X *77:10 45.0429 
2 *77:10 *1476:D 43.4323 
*END

*D_NET *78 0.0023688
*CONN
*I *1468:D I *D sky130_fd_sc_hd__dfxtp_2
*I *1366:Y O *D sky130_fd_sc_hd__a21oi_2
*CAP
1 *1468:D 0.000374481
2 *1366:Y 0.000639705
3 *78:10 0.00101419
4 *1468:D *1186:A 4.9054e-06
5 *78:10 *1366:A2 0.00010018
6 *78:10 *1385:A 0
7 *78:10 *1553:A 0
8 *78:10 *398:34 0
9 *78:10 *429:26 0
10 *78:10 *458:22 0
11 *78:10 *459:8 1.14452e-05
12 *78:10 *603:8 0.00020111
13 *43:12 *78:10 2.2781e-05
*RES
1 *1366:Y *78:10 49.2271 
2 *78:10 *1468:D 44.3852 
*END

*D_NET *79 0.000998812
*CONN
*I *1469:D I *D sky130_fd_sc_hd__dfxtp_2
*I *1372:X O *D sky130_fd_sc_hd__o211a_2
*CAP
1 *1469:D 7.34139e-05
2 *1372:X 0.000331151
3 *79:8 0.000404565
4 *1469:D *1473:CLK 0.000189681
5 *79:8 *353:10 0
6 *79:8 *426:18 0
7 *79:8 *456:158 0
8 *39:10 *79:8 0
*RES
1 *1372:X *79:8 43.4271 
2 *79:8 *1469:D 40.0973 
*END

*D_NET *80 0.00108858
*CONN
*I *1470:D I *D sky130_fd_sc_hd__dfxtp_2
*I *1376:Y O *D sky130_fd_sc_hd__a21oi_2
*CAP
1 *1470:D 1.38132e-05
2 *1376:Y 0.000182262
3 *80:10 0.000196075
4 *1470:D *419:26 4.9054e-06
5 *80:10 *398:12 5.14746e-06
6 *80:10 *419:26 0.00030233
7 *80:10 *429:26 0.000384045
8 *80:10 *471:52 0
*RES
1 *1376:Y *80:10 43.6964 
2 *80:10 *1470:D 38.1916 
*END

*D_NET *81 0.000980473
*CONN
*I *1471:D I *D sky130_fd_sc_hd__dfxtp_2
*I *1381:X O *D sky130_fd_sc_hd__o311a_2
*CAP
1 *1471:D 0.000169167
2 *1381:X 9.46719e-05
3 *81:8 0.000263839
4 *1471:D *1498:A 0.000404722
5 *81:8 *342:41 4.80733e-05
*RES
1 *1381:X *81:8 39.5536 
2 *81:8 *1471:D 42.4795 
*END

*D_NET *82 0.00124445
*CONN
*I *1472:D I *D sky130_fd_sc_hd__dfxtp_2
*I *1385:Y O *D sky130_fd_sc_hd__nor2_2
*CAP
1 *1472:D 7.43559e-05
2 *1385:Y 8.55119e-05
3 *82:8 0.000159868
4 *1472:D *1498:A 0.000314618
5 *1472:D *456:152 0.000314889
6 *82:8 *436:10 0.000222113
7 *82:8 *635:12 7.30978e-05
*RES
1 *1385:Y *82:8 40.9621 
2 *82:8 *1472:D 41.5266 
*END

*D_NET *83 0.000475473
*CONN
*I *1473:D I *D sky130_fd_sc_hd__dfxtp_2
*I *1390:X O *D sky130_fd_sc_hd__o311a_2
*CAP
1 *1473:D 5.60935e-05
2 *1390:X 0.00013237
3 *83:8 0.000188463
4 *1473:D *353:16 2.11102e-05
5 *83:8 *1375:B1 7.74361e-05
*RES
1 *1390:X *83:8 40.61 
2 *83:8 *1473:D 38.9373 
*END

*D_NET *84 0.000551241
*CONN
*I *1474:D I *D sky130_fd_sc_hd__dfxtp_2
*I *1391:X O *D sky130_fd_sc_hd__mux2_1
*CAP
1 *1474:D 8.45249e-06
2 *1391:X 0.000209395
3 *84:10 0.000217848
4 *1474:D *456:52 1.64354e-05
5 *84:10 *399:16 9.91101e-05
6 *84:10 *508:40 0
7 *84:10 *637:10 0
*RES
1 *1391:X *84:10 41.0036 
2 *84:10 *1474:D 38.1916 
*END

*D_NET *85 0.000492903
*CONN
*I *1475:D I *D sky130_fd_sc_hd__dfxtp_2
*I *1392:X O *D sky130_fd_sc_hd__mux2_1
*CAP
1 *1475:D 4.18054e-05
2 *1392:X 7.72028e-05
3 *85:8 0.000119008
4 *1475:D *318:14 0.000100782
5 *1475:D *459:20 2.46181e-05
6 *85:8 *318:14 8.25782e-05
7 *85:8 *457:8 4.6908e-05
*RES
1 *1392:X *85:8 39.5536 
2 *85:8 *1475:D 39.1445 
*END

*D_NET *86 0.000905876
*CONN
*I *1477:D I *D sky130_fd_sc_hd__dfxtp_2
*I *1393:X O *D sky130_fd_sc_hd__and2_2
*CAP
1 *1477:D 0.000197869
2 *1393:X 0.000117665
3 *86:8 0.000315534
4 *1477:D *1477:CLK 0.000100782
5 *1477:D *519:8 0.00012316
6 *86:8 *1418:CLK 5.0866e-05
7 *86:8 *508:18 0
*RES
1 *1393:X *86:8 40.2579 
2 *86:8 *1477:D 42.003 
*END

*D_NET *87 0.00260294
*CONN
*I *1478:D I *D sky130_fd_sc_hd__dfxtp_2
*I *1394:X O *D sky130_fd_sc_hd__and2_2
*CAP
1 *1478:D 7.2294e-05
2 *1394:X 0.000146191
3 *87:18 0.000442117
4 *87:10 0.000516014
5 *1478:D *1364:B 6.17437e-06
6 *1478:D *1364:C 6.64304e-05
7 *1478:D *520:6 8.76338e-05
8 *87:10 *1394:A 3.22722e-05
9 *87:10 *1394:B 0.00017761
10 *87:10 *180:70 0
11 *87:10 *555:17 8.8873e-05
12 *87:10 *611:35 9.86551e-06
13 *87:18 *1394:A 0.000269781
14 *87:18 *1394:B 0.000106386
15 *87:18 *1478:CLK 0.000176295
16 *87:18 *1555:A 4.24694e-06
17 *87:18 *180:70 1.12487e-05
18 *87:18 *447:10 0.000181071
19 *87:18 *521:18 1.92464e-05
20 *87:18 *536:10 8.04817e-05
21 *87:18 *545:59 8.34784e-05
22 *87:18 *553:16 2.52335e-05
*RES
1 *1394:X *87:10 41.2521 
2 *87:10 *87:18 38.9071 
3 *87:18 *1478:D 39.9471 
*END

*D_NET *88 0.000791818
*CONN
*I *1479:D I *D sky130_fd_sc_hd__dfxtp_2
*I *1395:X O *D sky130_fd_sc_hd__and2_2
*CAP
1 *1479:D 2.6898e-05
2 *1395:X 0.000178479
3 *88:8 0.000205377
4 *1479:D *447:68 0.000189681
5 *1479:D *521:12 0.000191382
6 *88:8 *1347:A 0
7 *88:8 *1418:CLK 0
8 *88:8 *537:28 0
*RES
1 *1395:X *88:8 40.61 
2 *88:8 *1479:D 40.0973 
*END

*D_NET *89 0.00135637
*CONN
*I *1480:D I *D sky130_fd_sc_hd__dfxtp_2
*I *1396:X O *D sky130_fd_sc_hd__and2_2
*CAP
1 *1480:D 0
2 *1396:X 0.000541995
3 *89:10 0.000541995
4 *89:10 *522:12 0.000272383
*RES
1 *1396:X *89:10 33.4659 
2 *89:10 *1480:D 23 
*END

*D_NET *90 0.00118091
*CONN
*I *1481:D I *D sky130_fd_sc_hd__dfxtp_2
*I *1397:X O *D sky130_fd_sc_hd__and2_2
*CAP
1 *1481:D 0.000160274
2 *1397:X 7.45286e-05
3 *90:8 0.000234802
4 *1481:D *1355:D 0.000236725
5 *1481:D *1396:B 9.41704e-05
6 *1481:D *446:50 0.000130169
7 *90:8 *410:8 3.82852e-05
8 *90:8 *446:50 8.72173e-05
9 *90:8 *523:10 8.85189e-05
10 *90:8 *605:83 3.62219e-05
*RES
1 *1397:X *90:8 40.2579 
2 *90:8 *1481:D 42.9559 
*END

*D_NET *91 0.0019971
*CONN
*I *1482:D I *D sky130_fd_sc_hd__dfxtp_2
*I *1398:X O *D sky130_fd_sc_hd__and2_2
*CAP
1 *1482:D 0.000291588
2 *1398:X 0.00024319
3 *91:10 0.000534778
4 *1482:D *1480:CLK 0.000575747
5 *91:10 *524:8 0.000295096
6 *91:10 *537:18 5.67058e-05
7 *91:10 *543:16 0
8 *91:10 *605:79 0
9 *91:10 *605:83 0
*RES
1 *1398:X *91:10 42.9921 
2 *91:10 *1482:D 44.3852 
*END

*D_NET *92 0.0021051
*CONN
*I *1483:D I *D sky130_fd_sc_hd__dfxtp_2
*I *1399:X O *D sky130_fd_sc_hd__and2_2
*CAP
1 *1483:D 0.00039386
2 *1399:X 0.000103836
3 *92:8 0.000497696
4 *1483:D *1480:CLK 4.08664e-05
5 *1483:D *447:158 0.000652269
6 *1483:D *525:10 5.3304e-05
7 *92:8 *1481:CLK 3.18198e-05
8 *92:8 *442:20 0.000171867
9 *92:8 *447:173 0.000157463
10 *92:8 *528:14 2.12347e-06
*RES
1 *1399:X *92:8 40.61 
2 *92:8 *1483:D 45.8145 
*END

*D_NET *93 0.00148536
*CONN
*I *1484:D I *D sky130_fd_sc_hd__dfxtp_2
*I *1400:X O *D sky130_fd_sc_hd__and2_2
*CAP
1 *1484:D 5.83048e-05
2 *1400:X 0.000301436
3 *93:10 0.000359741
4 *1484:D *403:6 0.00028142
5 *1484:D *446:40 0.000103152
6 *93:10 *94:8 0
7 *93:10 *447:144 0
8 *93:10 *542:8 5.3304e-05
9 *93:10 *554:14 0.000327998
*RES
1 *1400:X *93:10 43.3443 
2 *93:10 *1484:D 41.0502 
*END

*D_NET *94 0.00129447
*CONN
*I *1485:D I *D sky130_fd_sc_hd__dfxtp_2
*I *1401:X O *D sky130_fd_sc_hd__and2_2
*CAP
1 *1485:D 0.000238037
2 *1401:X 0.000186079
3 *94:8 0.000424116
4 *1485:D *447:75 0.000143349
5 *1485:D *447:138 0.000130637
6 *1485:D *447:151 0.000172252
7 *94:8 *447:79 0
8 *93:10 *94:8 0
*RES
1 *1401:X *94:8 40.61 
2 *94:8 *1485:D 42.9559 
*END

*D_NET *95 0.00183801
*CONN
*I *1486:D I *D sky130_fd_sc_hd__dfxtp_2
*I *1402:X O *D sky130_fd_sc_hd__and2_2
*CAP
1 *1486:D 0
2 *1402:X 0.000309361
3 *95:6 0.000309361
4 *95:6 *1489:CLK 5.56279e-05
5 *95:6 *508:18 0.000189681
6 *95:6 *509:10 0.000306338
7 *95:6 *606:58 0.000527062
8 *95:6 *606:86 0.000124921
9 *95:6 *606:95 1.56542e-05
*RES
1 *1402:X *95:6 31.7673 
2 *95:6 *1486:D 23 
*END

*D_NET *96 0.00268248
*CONN
*I *1487:D I *D sky130_fd_sc_hd__dfxtp_2
*I *1403:X O *D sky130_fd_sc_hd__and2_2
*CAP
1 *1487:D 0
2 *1403:X 0.000440132
3 *96:10 0.000440132
4 *96:10 *424:28 0.000337319
5 *96:10 *515:26 0.000523716
6 *96:10 *543:8 0.000269775
7 *1556:A *96:10 0.000671405
*RES
1 *1403:X *96:10 38.0023 
2 *96:10 *1487:D 23 
*END

*D_NET *97 0.00357465
*CONN
*I *1488:D I *D sky130_fd_sc_hd__dfxtp_2
*I *1404:X O *D sky130_fd_sc_hd__and2_2
*CAP
1 *1488:D 0
2 *1404:X 0
3 *97:12 0.000924748
4 *97:6 0.000924748
5 *97:12 *1103:B 0
6 *97:12 *1285:B 0.000394757
7 *97:12 *1487:CLK 8.54089e-05
8 *97:12 *425:12 2.33003e-05
9 *97:12 *447:79 6.71206e-05
10 *97:12 *447:81 9.3375e-05
11 *97:12 *447:144 0
12 *97:12 *530:10 0.000263878
13 *97:12 *565:8 0.000628248
14 *97:12 *606:64 0.000169065
*RES
1 *1404:X *97:6 38 
2 *97:6 *97:12 35.3052 
3 *97:12 *1488:D 23 
*END

*D_NET *98 0.0032415
*CONN
*I *1489:D I *D sky130_fd_sc_hd__dfxtp_2
*I *1405:X O *D sky130_fd_sc_hd__and2_2
*CAP
1 *1489:D 0
2 *1405:X 0.000113963
3 *98:16 0.000782264
4 *98:8 0.000896226
5 *98:8 *517:34 0
6 *98:8 *543:16 0.000131847
7 *98:16 *1490:D 0.000181857
8 *98:16 *1495:CLK 0.000110039
9 *98:16 *512:10 5.50106e-05
10 *98:16 *605:10 7.43025e-06
11 *98:16 *606:121 0.00062287
12 *98:16 *606:138 0.000339989
*RES
1 *1405:X *98:8 39.9057 
2 *98:8 *98:16 30.1266 
3 *98:16 *1489:D 23 
*END

*D_NET *99 0.00195337
*CONN
*I *1490:D I *D sky130_fd_sc_hd__dfxtp_2
*I *1406:X O *D sky130_fd_sc_hd__and2_2
*CAP
1 *1490:D 0.000127589
2 *1406:X 0.000400675
3 *99:8 0.000528264
4 *1490:D *1495:CLK 0.000312286
5 *99:8 *102:8 5.26204e-05
6 *99:8 *415:14 0.000135547
7 *99:8 *416:10 5.30518e-05
8 *99:8 *444:18 0
9 *99:8 *447:109 4.55681e-05
10 *99:8 *516:16 8.62783e-05
11 *99:8 *517:34 0
12 *99:8 *543:16 0
13 *99:8 *605:10 2.96369e-05
14 *98:16 *1490:D 0.000181857
*RES
1 *1406:X *99:8 46.2443 
2 *99:8 *1490:D 41.5266 
*END

*D_NET *100 0.00275938
*CONN
*I *1491:D I *D sky130_fd_sc_hd__dfxtp_2
*I *1409:X O *D sky130_fd_sc_hd__o21a_2
*CAP
1 *1491:D 0.000332362
2 *1409:X 0.000256986
3 *100:14 0.000589348
4 *1491:D *447:94 0.000645611
5 *100:14 *415:14 0.000347359
6 *100:14 *424:8 0.000185268
7 *100:14 *425:12 3.17516e-05
8 *100:14 *511:37 9.5877e-05
9 *100:14 *514:14 9.1712e-05
10 *100:14 *515:26 0.000183103
*RES
1 *1409:X *100:14 46.1614 
2 *100:14 *1491:D 46.4566 
*END

*D_NET *101 0.00319884
*CONN
*I *1492:D I *D sky130_fd_sc_hd__dfxtp_2
*I *1410:X O *D sky130_fd_sc_hd__and2_2
*CAP
1 *1492:D 0
2 *1410:X 0.00017182
3 *101:16 0.000441389
4 *101:8 0.000613209
5 *101:8 *1407:A 0.000163361
6 *101:8 *1410:B 0.000101575
7 *101:8 *1411:B 1.88972e-05
8 *101:8 *515:8 0.000113153
9 *101:8 *533:18 0.000114092
10 *101:16 *1360:C 2.32004e-05
11 *101:16 *447:109 0.000439206
12 *101:16 *514:14 4.95081e-05
13 *101:16 *514:70 0.0002494
14 *101:16 *516:30 0.000119447
15 *101:16 *517:22 0.000397602
16 *101:16 *605:16 4.67488e-05
17 *101:16 *605:75 0.000136226
*RES
1 *1410:X *101:8 42.3707 
2 *101:8 *101:16 28.2209 
3 *101:16 *1492:D 23 
*END

*D_NET *102 0.000563054
*CONN
*I *1493:D I *D sky130_fd_sc_hd__dfxtp_2
*I *1413:X O *D sky130_fd_sc_hd__o21a_2
*CAP
1 *1493:D 5.07146e-05
2 *1413:X 0.000112064
3 *102:8 0.000162779
4 *1493:D *1562:A 5.67058e-05
5 *1493:D *415:14 5.73018e-05
6 *1493:D *441:12 5.2426e-05
7 *1493:D *513:29 1.56762e-05
8 *102:8 *444:18 0
9 *102:8 *514:70 2.76611e-06
10 *99:8 *102:8 5.26204e-05
*RES
1 *1413:X *102:8 40.2579 
2 *102:8 *1493:D 39.6209 
*END

*D_NET *103 0.00131404
*CONN
*I *1494:D I *D sky130_fd_sc_hd__dfxtp_2
*I *1416:X O *D sky130_fd_sc_hd__o21a_2
*CAP
1 *1494:D 0.000191051
2 *1416:X 0.000144506
3 *103:8 0.000335557
4 *1494:D *1417:A 0.000182826
5 *1494:D *533:18 3.59678e-05
6 *103:8 *444:18 0.000101774
7 *103:8 *605:79 0.000322358
*RES
1 *1416:X *103:8 42.3707 
2 *103:8 *1494:D 41.5266 
*END

*D_NET *104 0.00132558
*CONN
*I *1495:D I *D sky130_fd_sc_hd__dfxtp_2
*I *1417:X O *D sky130_fd_sc_hd__and2_2
*CAP
1 *1495:D 0
2 *1417:X 0.000623064
3 *104:10 0.000623064
4 *104:10 *516:16 4.88222e-05
5 *104:10 *517:10 3.06338e-05
*RES
1 *1417:X *104:10 33.4659 
2 *104:10 *1495:D 23 
*END

*D_NET *105 0.00048736
*CONN
*I *1424:D I *D sky130_fd_sc_hd__dfrtp_2
*I *1197:Y O *D sky130_fd_sc_hd__xnor2_2
*CAP
1 *1424:D 2.53581e-05
2 *1197:Y 0.000106447
3 *105:8 0.000131805
4 *1424:D *466:8 0.000141954
5 *1424:D *598:40 8.1796e-05
6 *105:8 *1428:RESET_B 0
7 *33:8 *105:8 0
*RES
1 *1197:Y *105:8 39.5536 
2 *105:8 *1424:D 39.5743 
*END

*D_NET *106 0.000559065
*CONN
*I *1428:D I *D sky130_fd_sc_hd__dfrtp_2
*I *1195:Y O *D sky130_fd_sc_hd__xnor2_2
*CAP
1 *1428:D 0
2 *1195:Y 0.000213138
3 *106:10 0.000213138
4 *106:10 *1433:RESET_B 0
5 *106:10 *467:24 5.50106e-05
6 uio_out[5] *106:10 3.02074e-05
7 *34:10 *106:10 4.75704e-05
*RES
1 *1195:Y *106:10 41.7079 
2 *106:10 *1428:D 38 
*END

*D_NET *107 0.000844894
*CONN
*I *1433:D I *D sky130_fd_sc_hd__dfrtp_2
*I *1193:Y O *D sky130_fd_sc_hd__xnor2_2
*CAP
1 *1433:D 0
2 *1193:Y 0.000201879
3 *107:10 0.000201879
4 *107:10 *390:12 0.000100069
5 *107:10 *392:10 0
6 *107:10 *457:33 9.28078e-06
7 *107:10 *457:188 0.000231718
8 *107:10 *463:60 0.000100069
9 *37:26 *107:10 0
*RES
1 *1193:Y *107:10 42.4121 
2 *107:10 *1433:D 38 
*END

*D_NET *108 0.000378828
*CONN
*I *1438:D I *D sky130_fd_sc_hd__dfrtp_2
*I *1191:Y O *D sky130_fd_sc_hd__xnor2_2
*CAP
1 *1438:D 5.72897e-05
2 *1191:Y 5.72897e-05
3 *1438:D *457:172 4.06849e-05
4 *1438:D *470:31 3.58088e-05
5 *24:12 *1438:D 0.000187754
*RES
1 *1191:Y *1438:D 48.5271 
*END

*D_NET *109 0.00143002
*CONN
*I *1423:D I *D sky130_fd_sc_hd__dfrtp_2
*I *1189:Y O *D sky130_fd_sc_hd__xnor2_2
*CAP
1 *1423:D 0
2 *1189:Y 0.000198386
3 *109:10 0.000198386
4 *109:10 *1328:A0 4.52437e-05
5 *109:10 *256:18 0.000371543
6 *109:10 *263:16 0.00014196
7 *109:10 *457:172 0.000182826
8 *24:12 *109:10 2.02872e-05
9 *29:18 *109:10 0.000271392
*RES
1 *1189:Y *109:10 45.1257 
2 *109:10 *1423:D 38 
*END

*D_NET *110 0.000584042
*CONN
*I *1425:D I *D sky130_fd_sc_hd__dfrtp_2
*I *1187:Y O *D sky130_fd_sc_hd__xnor2_2
*CAP
1 *1425:D 0
2 *1187:Y 0.000133165
3 *110:10 0.000133165
4 *110:10 *1431:RESET_B 9.5877e-05
5 *110:10 *112:10 0.000110922
6 *110:10 *473:35 0.000110913
*RES
1 *1187:Y *110:10 40.6514 
2 *110:10 *1425:D 38 
*END

*D_NET *111 0.000788084
*CONN
*I *1426:D I *D sky130_fd_sc_hd__dfrtp_2
*I *1185:Y O *D sky130_fd_sc_hd__xnor2_2
*CAP
1 *1426:D 6.56381e-05
2 *1185:Y 0.000136039
3 *111:8 0.000201677
4 *1426:D *112:22 0.000153145
5 *111:8 *1426:CLK 0
6 *111:8 *258:74 1.61969e-05
7 *111:8 *472:10 0.000107641
8 *27:10 *1426:D 0.000107748
*RES
1 *1185:Y *111:8 40.9621 
2 *111:8 *1426:D 41.0036 
*END

*D_NET *112 0.00440701
*CONN
*I *1427:D I *D sky130_fd_sc_hd__dfstp_2
*I *1183:Y O *D sky130_fd_sc_hd__xnor2_2
*CAP
1 *1427:D 0
2 *1183:Y 0.000412291
3 *112:22 0.00111988
4 *112:10 0.00153217
5 *112:10 *1259:B 8.90323e-05
6 *112:10 *1426:RESET_B 0
7 *112:10 *1434:RESET_B 0
8 *112:10 *259:40 9.91798e-05
9 *112:10 *260:24 2.24608e-05
10 *112:10 *262:18 5.40866e-05
11 *112:10 *473:35 0.000238356
12 *112:10 *572:31 0.000178517
13 *112:22 *1028:A 0.000115524
14 *112:22 *472:10 0.000145784
15 *112:22 *473:10 7.88926e-05
16 *1426:D *112:22 0.000153145
17 *27:10 *112:22 5.67806e-05
18 *110:10 *112:10 0.000110922
*RES
1 *1183:Y *112:10 47.5907 
2 *112:10 *112:22 34.5336 
3 *112:22 *1427:D 23 
*END

*D_NET *113 0.00258245
*CONN
*I *1429:D I *D sky130_fd_sc_hd__dfrtp_2
*I *1181:Y O *D sky130_fd_sc_hd__xnor2_2
*CAP
1 *1429:D 0
2 *1181:Y 0.00104934
3 *113:12 0.00104934
4 *113:12 *1181:A 5.3304e-05
5 *113:12 *1181:B 0.000180224
6 *113:12 *1429:CLK 3.7122e-06
7 *113:12 *495:56 4.60905e-05
8 *113:12 *572:14 3.90255e-05
9 *113:12 *572:31 0.000161407
*RES
1 *1181:Y *113:12 39.0536 
2 *113:12 *1429:D 23 
*END

*D_NET *114 0.000250477
*CONN
*I *1431:D I *D sky130_fd_sc_hd__dfrtp_2
*I *1179:Y O *D sky130_fd_sc_hd__xnor2_2
*CAP
1 *1431:D 0
2 *1179:Y 6.95074e-05
3 *114:8 6.95074e-05
4 *114:8 *461:39 0.000111462
*RES
1 *1179:Y *114:8 39.5536 
2 *114:8 *1431:D 38 
*END

*D_NET *115 0.000337612
*CONN
*I *1432:D I *D sky130_fd_sc_hd__dfrtp_2
*I *1177:Y O *D sky130_fd_sc_hd__xnor2_2
*CAP
1 *1432:D 0
2 *1177:Y 0.000148089
3 *115:8 0.000148089
4 *115:8 *130:32 4.14351e-05
5 *115:8 *492:50 0
*RES
1 *1177:Y *115:8 40.61 
2 *115:8 *1432:D 38 
*END

*D_NET *116 0.00104875
*CONN
*I *1434:D I *D sky130_fd_sc_hd__dfrtp_2
*I *1175:Y O *D sky130_fd_sc_hd__xnor2_2
*CAP
1 *1434:D 0.00022599
2 *1175:Y 9.57893e-05
3 *116:8 0.000321779
4 *1434:D *462:12 0.000110939
5 *116:8 *1175:B 0
6 *116:8 *473:35 3.44147e-05
7 *116:8 *488:8 0.00012019
8 *116:8 *563:30 0.000139647
*RES
1 *1175:Y *116:8 40.61 
2 *116:8 *1434:D 41.9564 
*END

*D_NET *117 0.00120947
*CONN
*I *1436:D I *D sky130_fd_sc_hd__dfrtp_2
*I *1173:Y O *D sky130_fd_sc_hd__xnor2_2
*CAP
1 *1436:D 0
2 *1173:Y 0.000274387
3 *117:10 0.000274387
4 *117:10 *1341:B1 0.000130799
5 *117:10 *1436:CLK 1.91398e-05
6 *117:10 *176:14 2.85976e-05
7 *117:10 *179:47 9.84851e-05
8 *117:10 *203:16 0.000225069
9 *117:10 *255:20 9.84851e-05
10 *117:10 *315:10 1.01436e-05
11 *117:10 *602:126 4.9979e-05
*RES
1 *1173:Y *117:10 44.1729 
2 *117:10 *1436:D 38 
*END

*D_NET *118 0.00035833
*CONN
*I *1437:D I *D sky130_fd_sc_hd__dfrtp_2
*I *1171:Y O *D sky130_fd_sc_hd__xnor2_2
*CAP
1 *1437:D 3.45921e-05
2 *1171:Y 3.45921e-05
3 *1437:D *1437:CLK 3.22465e-05
4 *1437:D *300:16 0.000188938
5 *1437:D *473:51 6.79616e-05
*RES
1 *1171:Y *1437:D 48.0507 
*END

*D_NET *119 0.000480856
*CONN
*I *1435:D I *D sky130_fd_sc_hd__dfrtp_2
*I *1201:Y O *D sky130_fd_sc_hd__xnor2_2
*CAP
1 *1435:D 0.00019953
2 *1201:Y 0.00019953
3 *1435:D *1435:CLK 8.1796e-05
*RES
1 *1201:Y *1435:D 49.48 
*END

*D_NET *120 0.000912021
*CONN
*I *1430:D I *D sky130_fd_sc_hd__dfrtp_2
*I *1199:Y O *D sky130_fd_sc_hd__xnor2_2
*CAP
1 *1430:D 7.26769e-05
2 *1199:Y 9.32958e-05
3 *120:8 0.000165973
4 *1430:D *1428:RESET_B 9.59561e-05
5 *1430:D *398:12 0.000123797
6 *1430:D *457:12 1.95118e-05
7 *120:8 *173:47 0.000177992
8 *120:8 *269:10 0.000162818
*RES
1 *1199:Y *120:8 40.61 
2 *120:8 *1430:D 40.5271 
*END

*D_NET *121 0.0146322
*CONN
*I *1257:A1 I *D sky130_fd_sc_hd__a32o_2
*I *1056:A1 I *D sky130_fd_sc_hd__a21oi_2
*I *1124:A I *D sky130_fd_sc_hd__nand2_2
*I *1137:A1 I *D sky130_fd_sc_hd__a21oi_2
*I *1117:A I *D sky130_fd_sc_hd__nand2_2
*I *1006:Y O *D sky130_fd_sc_hd__inv_2
*CAP
1 *1257:A1 0
2 *1056:A1 0
3 *1124:A 1.5048e-05
4 *1137:A1 0.000119242
5 *1117:A 9.71245e-05
6 *1006:Y 0.000622698
7 *121:95 0.000226555
8 *121:79 0.00083782
9 *121:62 0.00130559
10 *121:45 0.00115554
11 *121:37 0.00194527
12 *121:14 0.00188268
13 *121:8 0.000820005
14 *1117:A *1117:B 1.05658e-05
15 *1117:A *231:10 0.000142496
16 *1117:A *371:18 5.90856e-07
17 *1117:A *586:25 0.000158146
18 *1117:A *634:10 4.15283e-06
19 *1124:A *1124:B 1.4345e-05
20 *1137:A1 *219:12 2.81411e-05
21 *1137:A1 *234:8 0.000146605
22 *1137:A1 *588:77 7.68979e-05
23 *121:8 *349:12 3.25984e-05
24 *121:8 *373:8 5.12254e-05
25 *121:8 *557:50 0.000180218
26 *121:8 *582:8 0.000112219
27 *121:14 *1318:A 0.000257316
28 *121:14 *1320:S 0.00014483
29 *121:14 *1353:B 2.16496e-05
30 *121:14 *197:38 7.73109e-05
31 *121:14 *374:8 9.2467e-06
32 *121:14 *409:18 2.26968e-05
33 *121:14 *581:54 0.00041056
34 *121:37 *197:28 0.000101048
35 *121:37 *197:38 2.11377e-05
36 *121:37 *214:18 1.66113e-05
37 *121:37 *215:25 0.000164756
38 *121:37 *216:10 5.17122e-05
39 *121:37 *351:10 0
40 *121:37 *371:18 0
41 *121:37 *409:18 9.03765e-05
42 *121:37 *557:42 0.00034894
43 *121:37 *557:50 8.1796e-05
44 *121:45 *197:26 0.000489396
45 *121:45 *200:26 0
46 *121:45 *232:10 9.41704e-05
47 *121:45 *609:41 8.04817e-05
48 *121:62 *1124:B 0.000266157
49 *121:62 *220:10 2.25927e-05
50 *121:62 *234:8 0.000199962
51 *121:62 *588:77 0.000190682
52 *121:79 *1056:A2 9.84851e-05
53 *121:79 *1465:SET_B 3.74475e-05
54 *121:79 *151:58 0.000542366
55 *121:79 *151:60 5.50049e-05
56 *121:79 *158:10 1.21972e-05
57 *121:79 *180:54 9.24795e-06
58 *121:79 *180:83 5.50049e-05
59 *121:79 *181:6 8.77809e-05
60 *121:79 *220:10 5.25848e-05
61 *121:79 *225:18 6.17437e-06
62 *121:79 *347:14 4.75489e-05
63 *121:95 *317:8 1.22906e-05
64 *121:95 *349:12 0.000140259
65 *121:95 *381:18 5.06226e-05
66 *121:95 *556:117 1.14452e-05
67 *121:95 *558:68 2.31797e-05
68 *121:95 *611:12 0.000241316
*RES
1 *1006:Y *121:8 44.815 
2 *121:8 *121:14 14.4407 
3 *121:14 *1117:A 48.4339 
4 *121:14 *121:37 49.6671 
5 *121:37 *121:45 38.0164 
6 *121:45 *1137:A1 40.2579 
7 *121:45 *121:62 22.4157 
8 *121:62 *1124:A 23.4971 
9 *121:62 *121:79 45.3286 
10 *121:79 *1056:A1 23 
11 *1006:Y *121:95 42.8886 
12 *121:95 *1257:A1 38 
*END

*D_NET *122 0.00237717
*CONN
*I *1087:B2 I *D sky130_fd_sc_hd__a2bb2o_2
*I *1088:B2 I *D sky130_fd_sc_hd__o22a_2
*I *1007:Y O *D sky130_fd_sc_hd__inv_2
*CAP
1 *1087:B2 5.79597e-05
2 *1088:B2 0.000196914
3 *1007:Y 0.000469224
4 *122:8 0.000724097
5 *1087:B2 *1087:B1 1.83408e-05
6 *1087:B2 *474:70 1.03876e-05
7 *1087:B2 *614:36 0
8 *1087:B2 *630:72 5.73309e-05
9 *1088:B2 *1087:A1_N 3.41998e-06
10 *1088:B2 *472:66 2.64616e-05
11 *1088:B2 *473:83 7.45306e-06
12 *1088:B2 *474:70 0.000229374
13 *1088:B2 *595:55 0.000178478
14 *122:8 *1087:A1_N 7.55847e-05
15 *122:8 *124:12 0.000128493
16 *122:8 *259:8 9.11055e-05
17 *122:8 *290:14 1.05441e-05
18 *122:8 *474:70 0
19 *122:8 *498:16 8.10876e-05
20 *122:8 *569:81 1.09111e-05
*RES
1 *1007:Y *122:8 45.54 
2 *122:8 *1088:B2 41.9357 
3 *122:8 *1087:B2 39.3879 
*END

*D_NET *123 0.00380307
*CONN
*I *1090:A1 I *D sky130_fd_sc_hd__a22o_2
*I *1226:D1 I *D sky130_fd_sc_hd__a2111oi_2
*I *1220:B1 I *D sky130_fd_sc_hd__a21o_2
*I *1008:Y O *D sky130_fd_sc_hd__inv_2
*CAP
1 *1090:A1 0
2 *1226:D1 4.91152e-05
3 *1220:B1 0.000222574
4 *1008:Y 0.000393611
5 *123:52 0.000297795
6 *123:33 0.000522364
7 *123:10 0.000791639
8 *1220:B1 *1098:B 1.58785e-05
9 *1220:B1 *1220:A2 2.45549e-06
10 *1220:B1 *132:10 0.000138607
11 *1220:B1 *279:48 1.87603e-06
12 *1220:B1 *287:41 1.39317e-05
13 *1226:D1 *279:36 6.30765e-05
14 *123:10 *1098:B 2.61527e-06
15 *123:10 *1218:B 6.80826e-05
16 *123:10 *1225:A1 2.79482e-05
17 *123:10 *143:24 1.01436e-05
18 *123:10 *194:24 0
19 *123:10 *259:24 3.20613e-06
20 *123:10 *278:43 4.24694e-06
21 *123:10 *279:48 2.33476e-05
22 *123:10 *287:41 1.23661e-05
23 *123:10 *289:35 2.62559e-05
24 *123:10 *290:49 0.000200746
25 *123:10 *621:72 2.1369e-05
26 *123:33 *132:10 0.000100069
27 *123:33 *279:36 1.34995e-05
28 *123:52 *1090:B2 0.000127817
29 *123:52 *1420:CLK 6.72929e-05
30 *123:52 *132:10 0.000130971
31 *123:52 *279:36 4.53056e-05
32 *123:52 *561:35 0.000272377
33 *123:52 *578:56 5.30255e-05
34 *123:52 *596:55 1.09111e-05
35 *123:52 *617:73 6.85548e-05
*RES
1 *1008:Y *123:10 45.0532 
2 *123:10 *1220:B1 41.7182 
3 *123:10 *123:33 17.8689 
4 *123:33 *1226:D1 24.4707 
5 *123:33 *123:52 37.54 
6 *123:52 *1090:A1 23 
*END

*D_NET *124 0.00593748
*CONN
*I *1236:A I *D sky130_fd_sc_hd__or3b_2
*I *1090:B2 I *D sky130_fd_sc_hd__a22o_2
*I *1087:A1_N I *D sky130_fd_sc_hd__a2bb2o_2
*I *1009:Y O *D sky130_fd_sc_hd__inv_2
*CAP
1 *1236:A 0.00019587
2 *1090:B2 0.000143531
3 *1087:A1_N 0.000164911
4 *1009:Y 0
5 *124:12 0.00129188
6 *124:4 0.0011793
7 *1087:A1_N *1087:A2_N 2.26823e-05
8 *1087:A1_N *473:71 3.18198e-05
9 *1087:A1_N *473:83 0.000176286
10 *1087:A1_N *630:72 2.13216e-05
11 *1090:B2 *1090:A2 3.31428e-05
12 *1090:B2 *1180:A 5.3304e-05
13 *1090:B2 *1420:CLK 0.000214035
14 *1090:B2 *187:10 0.000137651
15 *1090:B2 *561:35 8.48502e-06
16 *1090:B2 *596:79 2.42565e-05
17 *1236:A *1009:A 2.64616e-05
18 *1236:A *1236:C_N 9.84794e-05
19 *1236:A *175:20 4.09312e-05
20 *124:12 *1009:A 9.46434e-05
21 *124:12 *1237:A 0.000266499
22 *124:12 *278:20 0.000177264
23 *124:12 *280:45 0.000121571
24 *124:12 *280:62 0.000120806
25 *124:12 *290:14 0.000127134
26 *124:12 *473:65 0.000412126
27 *124:12 *473:71 0.000333233
28 *124:12 *495:26 8.45427e-05
29 *1088:B2 *1087:A1_N 3.41998e-06
30 *122:8 *1087:A1_N 7.55847e-05
31 *122:8 *124:12 0.000128493
32 *123:52 *1090:B2 0.000127817
*RES
1 *1009:Y *124:4 23 
2 *124:4 *124:12 34.9271 
3 *124:12 *1087:A1_N 41.2107 
4 *124:12 *1090:B2 43.5307 
5 *124:4 *1236:A 26.5007 
*END

*D_NET *125 0.0021568
*CONN
*I *1096:B2 I *D sky130_fd_sc_hd__o22a_2
*I *1280:A I *D sky130_fd_sc_hd__xnor2_2
*I *1010:Y O *D sky130_fd_sc_hd__inv_2
*CAP
1 *1096:B2 0
2 *1280:A 7.80623e-05
3 *1010:Y 0.000383584
4 *125:38 0.000163794
5 *125:24 0.000469316
6 *1280:A *1010:A 0.000141215
7 *1280:A *338:14 4.93812e-05
8 *1280:A *506:31 2.96262e-05
9 *1280:A *584:46 0.000184413
10 *125:24 *141:34 0.000179514
11 *125:24 *193:8 6.32799e-05
12 *125:24 *201:14 7.19394e-05
13 *125:24 *503:24 6.56284e-05
14 *125:24 *584:46 9.84794e-05
15 *125:38 *1096:A1 9.41704e-05
16 *125:38 *132:30 1.84948e-05
17 *125:38 *141:34 2.11066e-05
18 *125:38 *142:32 2.21473e-05
19 *125:38 *631:54 2.26497e-05
*RES
1 *1010:Y *1280:A 49.0243 
2 *1010:Y *125:24 43.8207 
3 *125:24 *125:38 48.3143 
4 *125:38 *1096:B2 23 
*END

*D_NET *126 0.00603266
*CONN
*I *1203:A1 I *D sky130_fd_sc_hd__a221o_2
*I *1202:B1 I *D sky130_fd_sc_hd__o2bb2a_2
*I *1011:Y O *D sky130_fd_sc_hd__inv_2
*CAP
1 *1203:A1 0.000114618
2 *1202:B1 0
3 *1011:Y 0.000291011
4 *126:24 0.000355941
5 *126:12 0.00154574
6 *126:8 0.0013662
7 *1203:A1 *1203:B1 2.26406e-05
8 *1203:A1 *284:82 0.000146682
9 *1203:A1 *319:24 9.85586e-06
10 *1203:A1 *504:35 0.00012421
11 *126:8 *137:10 0.000159651
12 *126:8 *322:24 0
13 *126:8 *449:56 1.14452e-05
14 *126:8 *449:67 0
15 *126:12 *284:82 0.000197386
16 *126:12 *322:24 0.000131849
17 *126:12 *504:35 0.000248191
18 *126:12 *612:22 0.000110175
19 *126:12 *629:22 2.81501e-05
20 *126:24 *1202:B2 5.73309e-05
21 *126:24 *1203:B1 7.57281e-06
22 *126:24 *257:30 5.08422e-06
23 *126:24 *270:14 0.000196612
24 *126:24 *456:214 0.000186088
25 *126:24 *490:14 5.41924e-05
26 *126:24 *490:26 0.000188038
27 *126:24 *604:8 9.2964e-05
28 *59:16 *126:8 0.000381028
*RES
1 *1011:Y *126:8 43.2511 
2 *126:8 *126:12 10.1168 
3 *126:12 *126:24 31.3375 
4 *126:24 *1202:B1 23 
5 *126:12 *1203:A1 46.6347 
*END

*D_NET *127 0.00692652
*CONN
*I *1204:B2 I *D sky130_fd_sc_hd__o221a_2
*I *1203:B2 I *D sky130_fd_sc_hd__a221o_2
*I *1012:Y O *D sky130_fd_sc_hd__inv_2
*CAP
1 *1204:B2 7.84665e-05
2 *1203:B2 0
3 *1012:Y 0.000141771
4 *127:28 0.000826459
5 *127:12 0.00139932
6 *127:8 0.00063617
7 *1204:B2 *1204:A1 4.03539e-05
8 *1204:B2 *1204:B1 1.28818e-05
9 *1204:B2 *128:24 4.21281e-05
10 *1204:B2 *272:10 0.000139804
11 *1204:B2 *323:30 2.18506e-05
12 *127:8 *1012:A 5.67058e-05
13 *127:8 *1177:B 0.00039759
14 *127:8 *1332:A0 0.0002246
15 *127:8 *388:10 8.48502e-06
16 *127:8 *492:37 0.000172197
17 *127:12 *128:32 1.22906e-05
18 *127:12 *141:18 2.70111e-05
19 *127:12 *257:30 0.000139635
20 *127:12 *272:10 0.000180132
21 *127:12 *275:30 0.000187716
22 *127:12 *319:10 0
23 *127:12 *494:48 0.000358122
24 *127:12 *575:8 0.000258368
25 *127:12 *578:39 6.69637e-06
26 *127:28 *1204:A1 0
27 *127:28 *128:24 0.000308045
28 *127:28 *138:22 6.7177e-06
29 *127:28 *284:82 1.40759e-05
30 *127:28 *312:35 0
31 *127:28 *323:30 0.000148507
32 *127:28 *325:6 2.90179e-05
33 *127:28 *326:10 8.35995e-05
34 *127:28 *490:42 4.6318e-06
35 *127:28 *492:26 0.000214582
36 *127:28 *492:37 0.000325084
37 *127:28 *504:35 4.62763e-05
38 *127:28 *577:26 0.000364343
39 *127:28 *597:65 0
40 *127:28 *626:28 1.2883e-05
*RES
1 *1012:Y *127:8 43.3857 
2 *127:8 *127:12 25.7093 
3 *127:12 *127:28 47.633 
4 *127:28 *1203:B2 23 
5 *127:12 *1204:B2 25.0507 
*END

*D_NET *128 0.00514146
*CONN
*I *1030:A I *D sky130_fd_sc_hd__xnor2_2
*I *1204:A1 I *D sky130_fd_sc_hd__o221a_2
*I *1205:B2 I *D sky130_fd_sc_hd__a221o_2
*I *1013:Y O *D sky130_fd_sc_hd__inv_2
*CAP
1 *1030:A 0
2 *1204:A1 9.94424e-05
3 *1205:B2 0
4 *1013:Y 0.000203208
5 *128:32 0.000149622
6 *128:24 0.000767949
7 *128:20 0.000716469
8 *128:10 0.000400792
9 *1204:A1 *1204:B1 1.28818e-05
10 *1204:A1 *272:10 4.21178e-05
11 *1204:A1 *313:10 0.000200283
12 *128:10 *1013:A 3.7122e-06
13 *128:10 *1031:C 0.000132665
14 *128:10 *137:33 0.000297704
15 *128:10 *139:32 0.000197479
16 *128:10 *140:12 0.000105062
17 *128:10 *143:52 4.84129e-06
18 *128:20 *1005:A 1.75256e-05
19 *128:20 *1030:B 9.8355e-05
20 *128:20 *323:30 0.000100069
21 *128:24 *313:10 0.000518561
22 *128:24 *323:30 0.000198069
23 *128:32 *1204:B1 3.70187e-05
24 *128:32 *257:30 0
25 *128:32 *271:18 3.70187e-05
26 *128:32 *272:10 0.000180827
27 *128:32 *319:10 1.32728e-05
28 *128:32 *449:111 6.39489e-06
29 *128:32 *575:16 6.39489e-06
30 *128:32 *578:39 0.000190903
31 *1204:B2 *1204:A1 4.03539e-05
32 *1204:B2 *128:24 4.21281e-05
33 *127:12 *128:32 1.22906e-05
34 *127:28 *1204:A1 0
35 *127:28 *128:24 0.000308045
*RES
1 *1013:Y *128:10 45.8093 
2 *128:10 *128:20 19.1429 
3 *128:20 *128:24 11.6 
4 *128:24 *128:32 33.8166 
5 *128:32 *1205:B2 23 
6 *128:24 *1204:A1 25.9311 
7 *128:20 *1030:A 23 
*END

*D_NET *129 0.004986
*CONN
*I *1205:A1 I *D sky130_fd_sc_hd__a221o_2
*I *1206:B2 I *D sky130_fd_sc_hd__o22a_2
*I *1014:Y O *D sky130_fd_sc_hd__inv_2
*CAP
1 *1205:A1 0
2 *1206:B2 0
3 *1014:Y 0.00042644
4 *129:24 0.000694115
5 *129:10 0.000694115
6 *129:8 0.00042644
7 *129:8 *319:10 0.000552938
8 *129:8 *460:14 6.89486e-05
9 *129:8 *460:34 2.60807e-06
10 *129:8 *494:48 0
11 *129:8 *496:27 5.494e-05
12 *129:8 *571:10 1.05441e-05
13 *129:8 *571:25 0.000584337
14 *129:24 *1205:A2 1.46586e-05
15 *129:24 *1548:A 5.50049e-05
16 *129:24 *258:74 0.000174829
17 *129:24 *272:10 5.3304e-05
18 *129:24 *273:18 3.7122e-06
19 *129:24 *310:47 0.000218471
20 *129:24 *313:10 0.000224649
21 *129:24 *319:10 0
22 *129:24 *323:30 6.37845e-05
23 *129:24 *449:111 0.000139352
24 *129:24 *571:10 2.00313e-05
25 *129:24 *571:40 0.000341983
26 *129:24 *571:56 3.17027e-05
27 *129:24 *575:16 3.08632e-05
28 *129:24 *597:6 9.82347e-05
*RES
1 *1014:Y *129:8 48.3571 
2 *129:8 *129:10 15 
3 *129:10 *129:24 44.8521 
4 *129:24 *1206:B2 23 
5 *129:10 *1205:A1 23 
*END

*D_NET *130 0.00922428
*CONN
*I *1207:A1 I *D sky130_fd_sc_hd__a22o_2
*I *1206:A1 I *D sky130_fd_sc_hd__o22a_2
*I *1015:Y O *D sky130_fd_sc_hd__inv_2
*CAP
1 *1207:A1 0
2 *1206:A1 0
3 *1015:Y 0.000309995
4 *130:40 0.000160323
5 *130:32 0.00202973
6 *130:12 0.0021794
7 *130:12 *1208:A3 0.000190005
8 *130:12 *131:23 2.91241e-05
9 *130:12 *276:10 4.67488e-05
10 *130:12 *495:56 0
11 *130:12 *563:42 1.83327e-05
12 *130:32 *1207:A2 2.02872e-05
13 *130:32 *143:32 0.000175642
14 *130:32 *273:18 9.58714e-05
15 *130:32 *334:8 0.000133441
16 *130:32 *449:160 0
17 *130:32 *472:28 0.000129634
18 *130:32 *495:14 0.000790974
19 *130:32 *503:50 5.92738e-07
20 *130:32 *566:26 0.000461146
21 *130:32 *567:8 7.89973e-05
22 *130:32 *569:26 1.75562e-05
23 *130:32 *571:56 0.000115401
24 *130:32 *628:30 0.00175594
25 *130:40 *1254:C 1.94812e-05
26 *130:40 *275:14 2.26497e-05
27 *130:40 *310:47 5.51815e-05
28 *130:40 *310:60 5.80848e-05
29 *130:40 *503:50 6.52067e-05
30 *130:40 *571:56 0.000223096
31 *65:10 *130:32 0
32 *115:8 *130:32 4.14351e-05
*RES
1 *1015:Y *130:12 43.7793 
2 *130:12 *130:32 48.0796 
3 *130:32 *130:40 33.9357 
4 *130:40 *1206:A1 23 
5 *130:32 *1207:A1 23 
*END

*D_NET *131 0.00484618
*CONN
*I *1208:A1 I *D sky130_fd_sc_hd__a31o_2
*I *1209:A1 I *D sky130_fd_sc_hd__o31ai_2
*I *1016:Y O *D sky130_fd_sc_hd__inv_2
*CAP
1 *1208:A1 0
2 *1209:A1 0.000259321
3 *1016:Y 0.000126429
4 *131:23 0.00105236
5 *131:8 0.00143811
6 *1209:A1 *1446:RESET_B 9.41704e-05
7 *1209:A1 *258:74 0.000459011
8 *1209:A1 *275:30 9.58714e-05
9 *1209:A1 *496:27 0.000457967
10 *131:8 *258:74 0.000287257
11 *131:8 *496:27 0.000277113
12 *131:23 *1014:A 6.99589e-05
13 *131:23 *1208:A3 6.25492e-05
14 *131:23 *1434:CLK 5.12254e-05
15 *131:23 *461:18 3.24008e-05
16 *131:23 *563:42 5.3304e-05
17 *130:12 *131:23 2.91241e-05
*RES
1 *1016:Y *131:8 42.0186 
2 *131:8 *1209:A1 45.5814 
3 *131:8 *131:23 28.485 
4 *131:23 *1208:A1 23 
*END

*D_NET *132 0.00646477
*CONN
*I *1294:A I *D sky130_fd_sc_hd__or4_2
*I *1097:A2 I *D sky130_fd_sc_hd__a22o_2
*I *1096:A2 I *D sky130_fd_sc_hd__o22a_2
*I *1017:Y O *D sky130_fd_sc_hd__inv_2
*CAP
1 *1294:A 9.08542e-05
2 *1097:A2 0
3 *1096:A2 0
4 *1017:Y 0.00156035
5 *132:43 0.00018402
6 *132:30 0.000367923
7 *132:18 0.000672729
8 *132:10 0.00159028
9 *1294:A *1294:B 3.34247e-05
10 *1294:A *1294:C 0.00010018
11 *1294:A *349:20 5.67058e-05
12 *132:10 *1220:A2 1.0119e-05
13 *132:10 *1226:A1 5.70419e-05
14 *132:10 *1294:B 5.3304e-05
15 *132:10 *1448:CLK 1.41077e-05
16 *132:10 *279:36 2.13733e-05
17 *132:10 *284:35 4.38068e-06
18 *132:10 *287:16 3.27534e-06
19 *132:10 *287:41 4.96675e-06
20 *132:10 *449:22 9.87985e-06
21 *132:10 *498:6 2.13733e-05
22 *132:10 *498:16 4.44979e-05
23 *132:10 *630:62 5.3304e-05
24 *132:10 *630:84 2.93845e-05
25 *132:18 *337:12 8.13127e-05
26 *132:18 *449:22 0.000135037
27 *132:18 *630:44 2.56419e-05
28 *132:18 *630:62 5.9539e-05
29 *132:30 *306:32 0.000100363
30 *132:30 *449:22 0.000316338
31 *132:30 *456:212 5.79559e-05
32 *132:30 *621:46 6.43574e-05
33 *132:30 *630:44 3.94106e-05
34 *132:43 *134:31 9.86551e-06
35 *132:43 *284:64 8.11914e-06
36 *132:43 *330:22 7.27694e-06
37 *132:43 *337:12 8.30566e-06
38 *132:43 *497:8 0.000144515
39 *132:43 *497:14 1.46586e-05
40 *1220:B1 *132:10 0.000138607
41 *1448:D *132:10 2.04611e-05
42 *123:33 *132:10 0.000100069
43 *123:52 *132:10 0.000130971
44 *125:38 *132:30 1.84948e-05
*RES
1 *1017:Y *132:10 42.8443 
2 *132:10 *132:18 32.7757 
3 *132:18 *132:30 37.4571 
4 *132:30 *1096:A2 23 
5 *132:18 *132:43 32.7809 
6 *132:43 *1097:A2 23 
7 *1017:Y *1294:A 48.5271 
*END

*D_NET *133 0.00119599
*CONN
*I *1323:B I *D sky130_fd_sc_hd__nor2_2
*I *1088:A2 I *D sky130_fd_sc_hd__o22a_2
*I *1018:Y O *D sky130_fd_sc_hd__inv_2
*CAP
1 *1323:B 0
2 *1088:A2 0.000290008
3 *1018:Y 8.10807e-05
4 *133:19 0.000116547
5 *133:6 0.000487636
6 *1088:A2 *472:66 5.14746e-06
7 *1088:A2 *506:31 5.50106e-05
8 *1088:A2 *614:36 2.73039e-05
9 *133:6 *1018:A 1.94693e-05
10 *133:6 *614:36 3.58084e-06
11 *133:19 *1018:A 5.92012e-05
12 *133:19 *260:12 1.70831e-05
13 *133:19 *474:70 0
14 *133:19 *630:84 3.39192e-05
*RES
1 *1018:Y *133:6 24.0979 
2 *133:6 *1088:A2 26.9564 
3 *133:6 *133:19 32.2579 
4 *133:19 *1323:B 23 
*END

*D_NET *134 0.01012
*CONN
*I *1097:B1 I *D sky130_fd_sc_hd__a22o_2
*I *1202:A2_N I *D sky130_fd_sc_hd__o2bb2a_2
*I *1019:Y O *D sky130_fd_sc_hd__inv_2
*CAP
1 *1097:B1 0
2 *1202:A2_N 0
3 *1019:Y 0.000210651
4 *134:31 0.00116938
5 *134:14 0.000927963
6 *134:10 0.00230799
7 *134:10 *1089:A 4.95487e-06
8 *134:10 *449:38 0.000112024
9 *134:10 *503:10 0.000113522
10 *134:10 *503:24 3.39192e-05
11 *134:10 *564:45 0.000124066
12 *134:10 *595:41 0.000146256
13 *134:14 *1202:B2 8.39585e-06
14 *134:14 *258:66 0.000462311
15 *134:14 *564:45 2.64616e-05
16 *134:14 *604:8 0.00026875
17 *134:31 *1089:A 1.02562e-05
18 *134:31 *284:64 2.68589e-05
19 *134:31 *322:10 4.77164e-06
20 *134:31 *326:28 0.000199313
21 *134:31 *472:50 2.70499e-05
22 *134:31 *503:10 0.00042357
23 *134:31 *504:35 2.12347e-05
24 *134:31 *564:45 4.80045e-05
25 *134:31 *577:43 0.00173409
26 *134:31 *623:60 0.00163909
27 *1454:D *134:14 5.92579e-05
28 *132:43 *134:31 9.86551e-06
*RES
1 *1019:Y *134:10 42.785 
2 *134:10 *134:14 28.0086 
3 *134:14 *1202:A2_N 23 
4 *134:10 *134:31 41.0334 
5 *134:31 *1097:B1 23 
*END

*D_NET *135 0.00285161
*CONN
*I *1041:A I *D sky130_fd_sc_hd__xnor2_2
*I *1022:A I *D sky130_fd_sc_hd__nand2_2
*I *1080:A I *D sky130_fd_sc_hd__and4_2
*I *1042:A1 I *D sky130_fd_sc_hd__a21bo_2
*I *1020:X O *D sky130_fd_sc_hd__or3_2
*CAP
1 *1041:A 0
2 *1022:A 0.000196263
3 *1080:A 1.60486e-05
4 *1042:A1 0
5 *1020:X 8.81005e-05
6 *135:25 0.00038322
7 *135:19 0.000313472
8 *135:12 0.000169581
9 *135:8 0.000115118
10 *1022:A *1022:B 0.000258733
11 *1022:A *1578:addr[10] 0.000570473
12 *1080:A *1578:addr[10] 9.84794e-05
13 *1080:A *136:8 0.00010018
14 *135:8 *1458:SET_B 0
15 *135:8 *613:72 4.59027e-05
16 *135:12 *145:17 3.22879e-05
17 *135:19 *1042:A2 0.000315852
18 *135:19 *145:17 1.72202e-05
19 *135:25 *1039:B 0
20 *135:25 *145:23 0.000130679
*RES
1 *1020:X *135:8 39.9057 
2 *135:8 *135:12 15.6214 
3 *135:12 *1042:A1 23 
4 *135:12 *135:19 3.95643 
5 *135:19 *135:25 32.61 
6 *135:25 *1080:A 24.0979 
7 *135:25 *1022:A 30.1879 
8 *135:19 *1041:A 23 
*END

*D_NET *136 0.0017356
*CONN
*I *1022:B I *D sky130_fd_sc_hd__nand2_2
*I *1080:B I *D sky130_fd_sc_hd__and4_2
*I *1021:Y O *D sky130_fd_sc_hd__o21ai_2
*CAP
1 *1022:B 0.000170238
2 *1080:B 0
3 *1021:Y 0.000114987
4 *136:8 0.000285225
5 *1022:B *146:10 9.75779e-05
6 *1022:B *146:23 0.000185428
7 *136:8 *1039:A 1.76557e-05
8 *136:8 *1039:C 0.00010018
9 *136:8 *1578:addr[10] 1.72202e-05
10 *136:8 *146:10 7.06229e-05
11 *136:8 *454:10 0.000317553
12 *1022:A *1022:B 0.000258733
13 *1080:A *136:8 0.00010018
*RES
1 *1021:Y *136:8 28.4064 
2 *136:8 *1080:B 23 
3 *136:8 *1022:B 28.3857 
*END

*D_NET *137 0.00807903
*CONN
*I *1027:B I *D sky130_fd_sc_hd__and2_2
*I *1028:B I *D sky130_fd_sc_hd__nor2_2
*I *1026:A I *D sky130_fd_sc_hd__nor2_2
*I *1024:X O *D sky130_fd_sc_hd__and3_2
*CAP
1 *1027:B 0
2 *1028:B 0.000147244
3 *1026:A 0
4 *1024:X 0.000168631
5 *137:33 0.00109132
6 *137:24 0.000544506
7 *137:18 0.00156308
8 *137:14 9.50522e-05
9 *137:10 0.000189186
10 *1028:B *1028:A 3.44446e-05
11 *1028:B *140:8 5.50106e-05
12 *137:10 *322:24 0
13 *137:10 *491:10 3.22465e-05
14 *137:14 *489:43 5.3304e-05
15 *137:14 *492:26 4.08664e-05
16 *137:18 *1024:B 2.56967e-05
17 *137:18 *489:43 0.000179473
18 *137:18 *492:26 9.64943e-05
19 *137:24 *1011:A 0.000226905
20 *137:24 *1024:A 0.000151173
21 *137:24 *323:22 0.00046597
22 *137:24 *597:94 0
23 *137:33 *1005:A 0.000248391
24 *137:33 *1013:A 0.000284947
25 *137:33 *1024:A 1.22803e-05
26 *137:33 *139:10 1.47563e-05
27 *137:33 *139:21 0.000114553
28 *137:33 *139:32 1.27508e-05
29 *137:33 *140:12 0
30 *137:33 *143:52 0.000337242
31 *137:33 *323:22 0.0003952
32 *137:33 *493:12 0.000559751
33 *137:33 *495:56 0.000401251
34 *59:16 *137:24 7.99547e-05
35 *126:8 *137:10 0.000159651
36 *128:10 *137:33 0.000297704
*RES
1 *1024:X *137:10 40.8793 
2 *137:10 *137:14 15.6214 
3 *137:14 *137:18 17.0507 
4 *137:18 *137:24 27.9879 
5 *137:24 *1026:A 23 
6 *137:18 *137:33 48.5986 
7 *137:33 *1028:B 26.0243 
8 *137:14 *1027:B 23 
*END

*D_NET *138 0.0041056
*CONN
*I *1026:B I *D sky130_fd_sc_hd__nor2_2
*I *1025:Y O *D sky130_fd_sc_hd__a21oi_2
*CAP
1 *1026:B 0
2 *1025:Y 9.10748e-05
3 *138:22 0.000864365
4 *138:8 0.00095544
5 *138:8 *1266:B 1.59094e-05
6 *138:8 *490:42 0.000270663
7 *138:8 *491:36 5.56279e-05
8 *138:8 *492:26 3.81154e-05
9 *138:22 *1023:B 0.000138727
10 *138:22 *1439:RESET_B 0.00037414
11 *138:22 *1579:clk 8.55047e-05
12 *138:22 *1581:B 0.000220606
13 *138:22 *490:42 0.000198693
14 *138:22 *597:65 0.00020762
15 *138:22 *617:42 0.000164334
16 *138:22 *619:28 8.06238e-05
17 *138:22 *629:22 0.000227545
18 *61:10 *138:22 0.000109892
19 *127:28 *138:22 6.7177e-06
*RES
1 *1025:Y *138:8 41.0036 
2 *138:8 *138:22 34.7407 
3 *138:22 *1026:B 23 
*END

*D_NET *139 0.00321565
*CONN
*I *1031:C I *D sky130_fd_sc_hd__and3_2
*I *1029:A I *D sky130_fd_sc_hd__nor2_2
*I *1030:B I *D sky130_fd_sc_hd__xnor2_2
*I *1032:A2 I *D sky130_fd_sc_hd__a21oi_2
*I *1027:X O *D sky130_fd_sc_hd__and2_2
*CAP
1 *1031:C 0.000104097
2 *1029:A 0
3 *1030:B 8.79228e-05
4 *1032:A2 0
5 *1027:X 0.000275434
6 *139:32 0.000210247
7 *139:21 0.000291967
8 *139:10 0.00037333
9 *1031:C *140:12 0.000141869
10 *1031:C *494:16 2.45549e-06
11 *139:10 *323:22 0.000330135
12 *139:10 *489:43 0.000183167
13 *139:32 *1445:CLK 0
14 *139:32 *140:12 1.14452e-05
15 *59:16 *139:10 0.000351617
16 *59:16 *139:21 0.000168744
17 *62:8 *139:21 1.62615e-05
18 *62:8 *139:32 9.64022e-05
19 *128:10 *1031:C 0.000132665
20 *128:10 *139:32 0.000197479
21 *128:20 *1030:B 9.8355e-05
22 *137:33 *139:10 1.47563e-05
23 *137:33 *139:21 0.000114553
24 *137:33 *139:32 1.27508e-05
*RES
1 *1027:X *139:10 44.7736 
2 *139:10 *1032:A2 38 
3 *139:10 *139:21 3.58357 
4 *139:21 *1030:B 39.5743 
5 *139:21 *139:32 3.31429 
6 *139:32 *1029:A 38 
7 *139:32 *1031:C 40.5271 
*END

*D_NET *140 0.00354402
*CONN
*I *1029:B I *D sky130_fd_sc_hd__nor2_2
*I *1028:Y O *D sky130_fd_sc_hd__nor2_2
*CAP
1 *1029:B 0
2 *1028:Y 5.91549e-05
3 *140:12 0.000804735
4 *140:8 0.00086389
5 *140:8 *1028:A 1.16862e-05
6 *140:12 *1427:CLK 0
7 *140:12 *1432:CLK 0
8 *140:12 *1445:CLK 0
9 *140:12 *143:52 0.000146727
10 *140:12 *144:26 1.7992e-05
11 *140:12 *276:10 0.000355699
12 *140:12 *457:114 0
13 *140:12 *494:16 5.08795e-05
14 *140:12 *574:69 2.82105e-05
15 *140:12 *627:22 0.000119516
16 *1028:B *140:8 5.50106e-05
17 *1031:C *140:12 0.000141869
18 *65:10 *140:12 0.000772143
19 *128:10 *140:12 0.000105062
20 *137:33 *140:12 0
21 *139:32 *140:12 1.14452e-05
*RES
1 *1028:Y *140:8 39.0979 
2 *140:8 *140:12 36.9779 
3 *140:12 *1029:B 23 
*END

*D_NET *141 0.0218293
*CONN
*I *1035:B I *D sky130_fd_sc_hd__or2_2
*I *1034:B I *D sky130_fd_sc_hd__nand2_2
*I *1033:A I *D sky130_fd_sc_hd__nor2_2
*I *1031:X O *D sky130_fd_sc_hd__and3_2
*CAP
1 *1035:B 0
2 *1034:B 1.25347e-05
3 *1033:A 0
4 *1031:X 0.000884105
5 *141:92 0.000919365
6 *141:71 0.00202286
7 *141:49 0.0011771
8 *141:34 0.000500152
9 *141:28 0.000951337
10 *141:18 0.00185758
11 *141:6 0.00237664
12 *1034:B *495:26 1.73564e-06
13 *141:6 *1276:B 8.91468e-07
14 *141:6 *494:16 5.56279e-05
15 *141:6 *494:48 0.000348562
16 *141:6 *495:8 0.000140259
17 *141:18 *143:32 0.00109371
18 *141:18 *204:24 4.48735e-05
19 *141:18 *299:20 0.000213012
20 *141:18 *319:10 0.000149835
21 *141:18 *494:48 2.85696e-05
22 *141:18 *495:14 0.00246772
23 *141:18 *503:50 0.000333068
24 *141:18 *574:41 0.000316996
25 *141:28 *173:18 0.000347561
26 *141:28 *205:10 9.75779e-05
27 *141:28 *309:10 0
28 *141:28 *569:45 4.96717e-05
29 *141:28 *574:41 8.96204e-05
30 *141:28 *579:39 6.02684e-06
31 *141:28 *602:116 0
32 *141:28 *621:46 5.30124e-05
33 *141:34 *173:10 6.56459e-05
34 *141:34 *193:8 0.000127807
35 *141:34 *258:30 0.000186606
36 *141:34 *258:44 0.000180312
37 *141:34 *580:34 0.000274237
38 *141:34 *595:41 5.30652e-05
39 *141:34 *621:46 0.000351012
40 *141:34 *631:54 0
41 *141:49 *1097:A1 9.41704e-05
42 *141:49 *284:68 9.41704e-05
43 *141:49 *287:16 5.43589e-05
44 *141:49 *621:46 5.43589e-05
45 *141:71 *1218:B 2.46906e-05
46 *141:71 *1219:A 1.71761e-05
47 *141:71 *1225:A2 2.64616e-05
48 *141:71 *1227:C 0.000225649
49 *141:71 *143:10 0.000238798
50 *141:71 *278:43 0.000229828
51 *141:71 *278:53 2.36123e-05
52 *141:71 *284:68 0.000137368
53 *141:71 *289:54 2.60252e-05
54 *141:71 *290:36 6.95327e-05
55 *141:71 *497:14 0.000225922
56 *141:71 *497:44 3.62721e-05
57 *141:92 *143:10 5.3304e-05
58 *141:92 *173:28 0.000385429
59 *141:92 *173:47 0.000340302
60 *141:92 *280:110 0.000153362
61 *141:92 *288:15 0.000218476
62 *141:92 *290:14 9.78729e-06
63 *141:92 *290:28 0.000116021
64 *141:92 *456:103 8.49023e-05
65 *141:92 *474:39 0.000168982
66 *141:92 *495:26 0.00014014
67 *141:92 *498:16 2.18409e-05
68 *141:92 *570:55 0.000135037
69 *1445:D *141:6 9.43689e-05
70 *67:8 *141:28 0.000146083
71 *67:8 *141:34 0.00017653
72 *125:24 *141:34 0.000179514
73 *125:38 *141:34 2.11066e-05
74 *127:12 *141:18 2.70111e-05
*RES
1 *1031:X *141:6 35.5321 
2 *141:6 *141:18 42.4931 
3 *141:18 *141:28 37.8507 
4 *141:28 *141:34 27.6771 
5 *141:34 *1033:A 23 
6 *141:28 *141:49 46.9471 
7 *141:49 *141:71 19.0986 
8 *141:71 *1034:B 23.4971 
9 *141:71 *141:92 48.9121 
10 *141:92 *1035:B 23 
*END

*D_NET *142 0.0134705
*CONN
*I *1033:B I *D sky130_fd_sc_hd__nor2_2
*I *1032:Y O *D sky130_fd_sc_hd__a21oi_2
*CAP
1 *1033:B 0
2 *1032:Y 1.24631e-05
3 *142:32 0.000396933
4 *142:22 0.0030594
5 *142:10 0.00267493
6 *142:10 *1442:CLK 6.10551e-06
7 *142:10 *323:22 2.27289e-05
8 *142:22 *1281:B 0.000105743
9 *142:22 *258:44 0.000473211
10 *142:22 *284:82 3.24898e-05
11 *142:22 *314:14 0.00220163
12 *142:22 *314:39 0.000621166
13 *142:22 *322:24 0.000166318
14 *142:22 *330:28 1.27408e-05
15 *142:22 *336:17 0.000291597
16 *142:22 *449:30 0.000334069
17 *142:22 *449:190 0.000389097
18 *142:22 *577:26 4.02903e-05
19 *142:22 *578:16 0.00059662
20 *142:22 *578:56 0.00153113
21 *142:22 *579:27 0.000174993
22 *142:22 *599:68 0
23 *142:22 *624:38 7.45678e-05
24 *142:32 *195:12 0
25 *142:32 *258:30 0.00018536
26 *142:32 *258:44 0
27 *142:32 *580:34 1.21972e-05
28 *142:32 *584:46 3.26088e-05
29 *125:38 *142:32 2.21473e-05
*RES
1 *1032:Y *142:10 46.3211 
2 *142:10 *142:22 45.5983 
3 *142:22 *142:32 35.4271 
4 *142:32 *1033:B 23 
*END

*D_NET *143 0.0165878
*CONN
*I *1036:A I *D sky130_fd_sc_hd__and2_2
*I *1037:B I *D sky130_fd_sc_hd__xnor2_2
*I *1034:Y O *D sky130_fd_sc_hd__nand2_2
*CAP
1 *1036:A 0
2 *1037:B 0.00032278
3 *1034:Y 0.00025477
4 *143:52 0.00032278
5 *143:32 0.00288708
6 *143:24 0.00352642
7 *143:10 0.000894112
8 *143:10 *1227:B 0.000178517
9 *143:10 *259:24 3.35885e-06
10 *143:10 *289:54 9.41704e-05
11 *143:10 *290:36 3.24898e-05
12 *143:10 *292:27 9.9437e-05
13 *143:24 *1218:B 0.000182729
14 *143:24 *1233:A2 9.77405e-05
15 *143:24 *1243:A 2.4982e-06
16 *143:24 *259:24 4.84342e-05
17 *143:24 *289:35 5.40715e-05
18 *143:24 *294:22 4.97266e-05
19 *143:24 *569:67 2.11157e-05
20 *143:24 *621:72 2.42041e-05
21 *143:32 *1032:B1 4.80427e-05
22 *143:32 *1445:CLK 0.000150305
23 *143:32 *277:25 8.35126e-06
24 *143:32 *314:14 0
25 *143:32 *494:48 0.000154995
26 *143:32 *495:14 0.000399544
27 *143:32 *503:50 0.000334183
28 *143:32 *626:28 2.19162e-05
29 *143:52 *276:10 0.000360161
30 *143:52 *276:16 6.99175e-05
31 *64:30 *143:32 0.00379176
32 *65:10 *143:32 0
33 *70:10 *143:24 9.18008e-05
34 *123:10 *143:24 1.01436e-05
35 *128:10 *143:52 4.84129e-06
36 *130:32 *143:32 0.000175642
37 *137:33 *143:52 0.000337242
38 *140:12 *143:52 0.000146727
39 *141:18 *143:32 0.00109371
40 *141:71 *143:10 0.000238798
41 *141:92 *143:10 5.3304e-05
*RES
1 *1034:Y *143:10 43.51 
2 *143:10 *143:24 48.3054 
3 *143:24 *143:32 37.0655 
4 *143:32 *1037:B 23 
5 *1037:B *143:52 48.585 
6 *143:52 *1036:A 38 
*END

*D_NET *144 0.0170044
*CONN
*I *1036:B I *D sky130_fd_sc_hd__and2_2
*I *1035:X O *D sky130_fd_sc_hd__or2_2
*CAP
1 *1036:B 0
2 *1035:X 0.000309949
3 *144:26 0.0042818
4 *144:10 0.00459174
5 *144:10 *175:20 0.000189383
6 *144:10 *456:124 0
7 *144:10 *461:81 0
8 *144:10 *465:59 4.67998e-05
9 *144:10 *474:39 4.75763e-05
10 *144:10 *570:55 5.27215e-06
11 *144:26 *177:41 0.000153998
12 *144:26 *179:66 0
13 *144:26 *460:34 0.00357805
14 *144:26 *473:35 0.00187044
15 *144:26 *474:39 0
16 *144:26 *486:20 0.000237019
17 *144:26 *488:22 2.24903e-05
18 *144:26 *495:56 4.94879e-05
19 *144:26 *563:42 3.06929e-05
20 *144:26 *566:26 0.000133371
21 *144:26 *627:22 0.00114397
22 uio_oe[0] *144:26 1.70278e-05
23 *23:12 *144:26 0.000118582
24 *46:30 *144:10 9.85586e-06
25 *46:30 *144:26 4.01987e-05
26 *65:10 *144:26 0.000108713
27 *140:12 *144:26 1.7992e-05
*RES
1 *1035:X *144:10 43.8725 
2 *144:10 *144:26 48.025 
3 *144:26 *1036:B 23 
*END

*D_NET *145 0.00320593
*CONN
*I *1040:A I *D sky130_fd_sc_hd__nand2_2
*I *1080:C I *D sky130_fd_sc_hd__and4_2
*I *1042:B1_N I *D sky130_fd_sc_hd__a21bo_2
*I *1038:Y O *D sky130_fd_sc_hd__o21ai_2
*CAP
1 *1040:A 0.000320051
2 *1080:C 0
3 *1042:B1_N 5.03106e-05
4 *1038:Y 7.87947e-05
5 *145:23 0.000234533
6 *145:17 0.00077727
7 *145:6 0.00035179
8 *1040:A *1040:B 0.000117706
9 *1040:A *1042:A2 0.0002246
10 *1040:A *147:8 3.41711e-05
11 *1042:B1_N *1038:A2 0
12 *145:6 *1038:A2 0.000180212
13 *145:6 *148:6 3.71251e-05
14 *145:17 *1038:A2 0.000258245
15 *145:17 *1042:A2 0.000356718
16 *145:23 *146:23 0
17 *145:23 *180:12 4.21594e-06
18 *145:23 *477:26 0
19 *135:12 *145:17 3.22879e-05
20 *135:19 *145:17 1.72202e-05
21 *135:25 *145:23 0.000130679
*RES
1 *1038:Y *145:6 25.0507 
2 *145:6 *1042:B1_N 23.9995 
3 *145:6 *145:17 6.33857 
4 *145:17 *145:23 33.3143 
5 *145:23 *1080:C 23 
6 *145:17 *1040:A 29.7114 
*END

*D_NET *146 0.00329791
*CONN
*I *1040:B I *D sky130_fd_sc_hd__nand2_2
*I *1042:A2 I *D sky130_fd_sc_hd__a21bo_2
*I *1080:D I *D sky130_fd_sc_hd__and4_2
*I *1039:X O *D sky130_fd_sc_hd__or3_2
*CAP
1 *1040:B 5.13916e-05
2 *1042:A2 0.000179687
3 *1080:D 0
4 *1039:X 0.000193467
5 *146:23 0.000561474
6 *146:10 0.000523863
7 *1040:B *147:8 0.000230823
8 *1042:A2 *147:8 3.17027e-05
9 *146:10 *1039:A 0
10 *146:23 *451:10 5.79118e-05
11 *146:23 *477:26 9.90862e-05
12 *1022:B *146:10 9.75779e-05
13 *1022:B *146:23 0.000185428
14 *1040:A *1040:B 0.000117706
15 *1040:A *1042:A2 0.0002246
16 *135:19 *1042:A2 0.000315852
17 *136:8 *146:10 7.06229e-05
18 *145:17 *1042:A2 0.000356718
19 *145:23 *146:23 0
*RES
1 *1039:X *146:10 26.6457 
2 *146:10 *1080:D 23 
3 *146:10 *146:23 35.7171 
4 *146:23 *1042:A2 29.8357 
5 *146:23 *1040:B 25.5271 
*END

*D_NET *147 0.000814234
*CONN
*I *1041:B I *D sky130_fd_sc_hd__xnor2_2
*I *1040:Y O *D sky130_fd_sc_hd__nand2_2
*CAP
1 *1041:B 0
2 *1040:Y 0.000258769
3 *147:8 0.000258769
4 *1040:A *147:8 3.41711e-05
5 *1040:B *147:8 0.000230823
6 *1042:A2 *147:8 3.17027e-05
*RES
1 *1040:Y *147:8 28.4064 
2 *147:8 *1041:B 23 
*END

*D_NET *148 0.00416218
*CONN
*I *1046:A I *D sky130_fd_sc_hd__xor2_2
*I *1052:A1 I *D sky130_fd_sc_hd__a21bo_2
*I *1058:A1 I *D sky130_fd_sc_hd__a311o_2
*I *1042:X O *D sky130_fd_sc_hd__a21bo_2
*CAP
1 *1046:A 0
2 *1052:A1 0
3 *1058:A1 0.000489471
4 *1042:X 0.000298038
5 *148:32 0.000174863
6 *148:21 9.66251e-05
7 *148:8 0.000659415
8 *148:6 0.000546221
9 *1058:A1 *151:27 0.000264817
10 *1058:A1 *240:42 0.000219637
11 *148:6 *1038:A2 0.000109428
12 *148:6 *1045:B 0.000126914
13 *148:6 *151:8 0.0002263
14 *148:8 *1045:B 3.31198e-05
15 *148:8 *151:8 9.67842e-05
16 *148:8 *151:27 2.14462e-05
17 *148:21 *1052:A2 0.000125797
18 *148:21 *151:10 3.70187e-05
19 *148:21 *560:23 7.73877e-05
20 *148:32 *1021:A1 0
21 *148:32 *1046:B 5.41753e-05
22 *148:32 *149:37 6.16439e-05
23 *148:32 *151:10 2.60152e-05
24 *148:32 *453:8 6.01895e-05
25 *148:32 *453:28 0.000131443
26 *55:8 *1058:A1 0.000188301
27 *145:6 *148:6 3.71251e-05
*RES
1 *1042:X *148:6 29.815 
2 *148:6 *148:8 1.57429 
3 *148:8 *1058:A1 33.15 
4 *148:8 *148:21 32.2579 
5 *148:21 *1052:A1 23 
6 *148:6 *148:32 33.3143 
7 *148:32 *1046:A 23 
*END

*D_NET *149 0.00252757
*CONN
*I *1045:A I *D sky130_fd_sc_hd__and2_2
*I *1052:B1_N I *D sky130_fd_sc_hd__a21bo_2
*I *1057:A_N I *D sky130_fd_sc_hd__and2b_2
*I *1043:Y O *D sky130_fd_sc_hd__o21ai_2
*CAP
1 *1045:A 0
2 *1052:B1_N 0
3 *1057:A_N 0
4 *1043:Y 0.000218218
5 *149:37 0.000382352
6 *149:20 0.00043359
7 *149:8 0.00016698
8 *149:8 *1043:A2 6.1789e-05
9 *149:8 *1057:B 0.000143655
10 *149:8 *559:33 0.000347125
11 *149:8 *560:43 7.40718e-05
12 *149:20 *1043:A1 0.000189371
13 *149:20 *615:103 0.000144938
14 *149:37 *1021:A1 0
15 *149:37 *1043:A1 9.634e-05
16 *149:37 *1052:A2 3.14242e-05
17 *149:37 *1514:A 8.15006e-05
18 *149:37 *151:10 6.7177e-06
19 *149:37 *559:37 0
20 *149:37 *560:8 4.74278e-05
21 *149:37 *615:103 4.04222e-05
22 *148:32 *149:37 6.16439e-05
*RES
1 *1043:Y *149:8 28.4064 
2 *149:8 *1057:A_N 23 
3 *1043:Y *149:20 25.0559 
4 *149:20 *1052:B1_N 23 
5 *149:20 *149:37 37.2034 
6 *149:37 *1045:A 23 
*END

*D_NET *150 0.00114438
*CONN
*I *1045:B I *D sky130_fd_sc_hd__and2_2
*I *1044:X O *D sky130_fd_sc_hd__or3_2
*CAP
1 *1045:B 0.000214206
2 *1044:X 0.000106302
3 *150:10 0.000320508
4 *1045:B *151:27 9.72171e-05
5 *1045:B *453:28 6.55012e-05
6 *150:10 *1046:B 5.10669e-05
7 *150:10 *454:10 1.32939e-05
8 *150:10 *560:23 0.000116251
9 *148:6 *1045:B 0.000126914
10 *148:8 *1045:B 3.31198e-05
*RES
1 *1044:X *150:10 40.175 
2 *150:10 *1045:B 42.4743 
*END

*D_NET *151 0.0130756
*CONN
*I *1052:A2 I *D sky130_fd_sc_hd__a21bo_2
*I *1058:A2 I *D sky130_fd_sc_hd__a311o_2
*I *1081:A I *D sky130_fd_sc_hd__nand2_2
*I *1082:B I *D sky130_fd_sc_hd__and4b_2
*I *1312:A I *D sky130_fd_sc_hd__nand4_2
*I *1046:B I *D sky130_fd_sc_hd__xor2_2
*I *1045:X O *D sky130_fd_sc_hd__and2_2
*CAP
1 *1052:A2 8.22031e-05
2 *1058:A2 4.22989e-05
3 *1081:A 0
4 *1082:B 0
5 *1312:A 0
6 *1046:B 0.000207745
7 *1045:X 0.000224329
8 *151:72 0.000916956
9 *151:60 0.000967807
10 *151:58 0.000844549
11 *151:39 0.00136257
12 *151:27 0.00113984
13 *151:10 0.000776531
14 *151:8 0.000346642
15 *1046:B *453:8 6.01055e-05
16 *1046:B *453:28 6.69637e-06
17 *1046:B *560:23 2.3312e-05
18 *151:10 *453:8 1.01436e-05
19 *151:10 *560:23 1.34812e-05
20 *151:27 *240:42 0.00024044
21 *151:27 *478:68 0.000309205
22 *151:39 *1058:A3 2.98648e-05
23 *151:39 *1059:B 3.33082e-05
24 *151:39 *1312:B 0.000137651
25 *151:39 *162:6 0.000167786
26 *151:39 *162:10 5.3304e-05
27 *151:39 *240:21 0.00012556
28 *151:39 *240:42 2.80924e-06
29 *151:39 *250:12 2.43916e-05
30 *151:39 *405:20 0
31 *151:39 *455:10 0
32 *151:39 *479:54 9.91919e-06
33 *151:39 *481:30 4.2062e-05
34 *151:39 *483:20 2.24973e-05
35 *151:39 *560:45 5.43589e-05
36 *151:58 *1312:B 5.39996e-05
37 *151:58 *158:10 0.000105117
38 *151:58 *180:32 2.18409e-05
39 *151:58 *180:54 1.56621e-05
40 *151:58 *225:10 1.02029e-05
41 *151:58 *368:6 0.000268868
42 *151:58 *446:22 0.000508375
43 *151:58 *479:44 0
44 *151:58 *481:30 0.000477634
45 *151:58 *481:38 7.71219e-06
46 *151:60 *180:54 3.3577e-05
47 *151:72 *1284:B1 0.000304991
48 *151:72 *1465:SET_B 0.000178326
49 *151:72 *189:30 0.000254111
50 *151:72 *235:10 2.11066e-05
51 *151:72 *446:22 0.000126631
52 *151:72 *516:58 0
53 *151:72 *522:27 3.41883e-05
54 *151:72 *545:27 0.000331864
55 *151:72 *587:16 0.000260565
56 *151:72 *611:35 0.000146334
57 *1045:B *151:27 9.72171e-05
58 *1058:A1 *151:27 0.000264817
59 *121:79 *151:58 0.000542366
60 *121:79 *151:60 5.50049e-05
61 *148:6 *151:8 0.0002263
62 *148:8 *151:8 9.67842e-05
63 *148:8 *151:27 2.14462e-05
64 *148:21 *1052:A2 0.000125797
65 *148:21 *151:10 3.70187e-05
66 *148:32 *1046:B 5.41753e-05
67 *148:32 *151:10 2.60152e-05
68 *149:37 *1052:A2 3.14242e-05
69 *149:37 *151:10 6.7177e-06
70 *150:10 *1046:B 5.10669e-05
*RES
1 *1045:X *151:8 41.48 
2 *151:8 *151:10 1.20143 
3 *151:10 *1046:B 18.5836 
4 *151:10 *151:27 26.745 
5 *151:27 *151:39 39.6943 
6 *151:39 *1312:A 23 
7 *151:39 *151:58 49.14 
8 *151:58 *151:60 1.09786 
9 *151:60 *151:72 43.5418 
10 *151:72 *1082:B 38 
11 *151:60 *1081:A 23 
12 *151:27 *1058:A2 23.8493 
13 *151:8 *1052:A2 39.9057 
*END

*D_NET *152 0.00248299
*CONN
*I *1051:A I *D sky130_fd_sc_hd__nand2_2
*I *1048:A I *D sky130_fd_sc_hd__inv_2
*I *1050:A I *D sky130_fd_sc_hd__and2_2
*I *1047:Y O *D sky130_fd_sc_hd__o21ai_2
*CAP
1 *1051:A 2.95011e-05
2 *1048:A 7.62291e-05
3 *1050:A 0
4 *1047:Y 0.000575854
5 *152:35 0.000342586
6 *152:10 7.62291e-05
7 *152:8 0.000262769
8 *1048:A *454:10 0.000156058
9 *1048:A *615:84 0.000269781
10 *1051:A *480:45 5.50106e-05
11 *152:8 *1050:B 0.000155668
12 *152:8 *1312:B 6.76886e-05
13 *152:8 *155:10 6.95156e-05
14 *152:8 *479:54 1.19831e-05
15 *152:35 *1047:A1 6.17437e-06
16 *152:35 *1057:B 0.00014196
17 *152:35 *154:8 2.68749e-05
18 *152:35 *156:18 5.43589e-05
19 *152:35 *559:33 4.05745e-05
20 *55:12 *152:35 6.41707e-05
*RES
1 *1047:Y *152:8 43.075 
2 *152:8 *152:10 15 
3 *152:10 *1050:A 23 
4 *152:10 *1048:A 26.5007 
5 *1047:Y *152:35 42.785 
6 *152:35 *1051:A 38.6214 
*END

*D_NET *153 0.000472877
*CONN
*I *1058:C1 I *D sky130_fd_sc_hd__a311o_2
*I *1048:Y O *D sky130_fd_sc_hd__inv_2
*CAP
1 *1058:C1 0
2 *1048:Y 0.000190313
3 *153:10 0.000190313
4 *153:10 *1050:B 0
5 *153:10 *240:42 3.55458e-05
6 *153:10 *478:68 0
7 *153:10 *482:20 0
8 *153:10 *615:84 5.67058e-05
*RES
1 *1048:Y *153:10 40.8793 
2 *153:10 *1058:C1 38 
*END

*D_NET *154 0.00231386
*CONN
*I *1051:B I *D sky130_fd_sc_hd__nand2_2
*I *1057:B I *D sky130_fd_sc_hd__and2b_2
*I *1050:B I *D sky130_fd_sc_hd__and2_2
*I *1049:X O *D sky130_fd_sc_hd__or3_2
*CAP
1 *1051:B 0.000100859
2 *1057:B 4.57428e-05
3 *1050:B 0.000487812
4 *1049:X 0
5 *154:8 0.000633653
6 *154:6 0.000200957
7 *1050:B *1047:B1 5.85486e-05
8 *1050:B *161:10 6.18486e-05
9 *1050:B *240:42 7.74865e-06
10 *1050:B *482:20 0
11 *1051:B *156:18 2.23143e-05
12 *1051:B *480:45 9.67842e-05
13 *1051:B *559:8 4.77164e-06
14 *1051:B *559:12 1.98354e-05
15 *1057:B *559:33 2.81138e-05
16 *154:8 *1047:B1 3.46356e-05
17 *154:8 *156:18 4.77164e-06
18 *154:8 *559:12 3.73022e-05
19 *55:12 *154:8 0
20 *149:8 *1057:B 0.000143655
21 *152:8 *1050:B 0.000155668
22 *152:35 *1057:B 0.00014196
23 *152:35 *154:8 2.68749e-05
24 *153:10 *1050:B 0
*RES
1 *1049:X *154:6 38 
2 *154:6 *154:8 1.90571 
3 *154:8 *1050:B 44.4836 
4 *154:8 *1057:B 40.0507 
5 *154:6 *1051:B 39.9471 
*END

*D_NET *155 0.00270845
*CONN
*I *1312:B I *D sky130_fd_sc_hd__nand4_2
*I *1058:A3 I *D sky130_fd_sc_hd__a311o_2
*I *1050:X O *D sky130_fd_sc_hd__and2_2
*CAP
1 *1312:B 0.00035668
2 *1058:A3 5.60343e-05
3 *1050:X 0.000289575
4 *155:10 0.000702288
5 *1058:A3 *162:6 2.93845e-05
6 *1058:A3 *240:42 7.44354e-05
7 *1312:B *479:44 2.64616e-05
8 *1312:B *479:54 0.000146237
9 *1312:B *481:30 2.17486e-05
10 *1312:B *560:43 0.00021677
11 *155:10 *479:54 0.00016124
12 *155:10 *615:84 0.000268873
13 *151:39 *1058:A3 2.98648e-05
14 *151:39 *1312:B 0.000137651
15 *151:58 *1312:B 5.39996e-05
16 *152:8 *1312:B 6.76886e-05
17 *152:8 *155:10 6.95156e-05
*RES
1 *1050:X *155:10 43.2614 
2 *155:10 *1058:A3 39.5743 
3 *155:10 *1312:B 45.6643 
*END

*D_NET *156 0.00939755
*CONN
*I *1053:A I *D sky130_fd_sc_hd__xnor2_2
*I *1139:A1 I *D sky130_fd_sc_hd__o41a_2
*I *1051:Y O *D sky130_fd_sc_hd__nand2_2
*CAP
1 *1053:A 0
2 *1139:A1 0
3 *1051:Y 0
4 *156:37 0.000492405
5 *156:18 0.00108055
6 *156:4 0.00157295
7 *156:18 *1466:CLK 6.33258e-05
8 *156:18 *1467:RESET_B 0.000307893
9 *156:18 *220:10 0.000361053
10 *156:18 *448:17 0.000118526
11 *156:18 *448:45 4.36401e-06
12 *156:18 *480:45 5.3304e-05
13 *156:18 *481:30 5.50049e-05
14 *156:18 *557:28 0.00171416
15 *156:18 *557:32 0.000251043
16 *156:18 *559:8 0
17 *156:18 *602:73 0.00168777
18 *156:18 *607:49 7.07398e-05
19 *156:37 *1144:C 4.3271e-05
20 *156:37 *1160:B 0
21 *156:37 *157:8 0.000138719
22 *156:37 *448:60 0.000123712
23 *156:37 *448:75 9.28078e-06
24 *156:37 *476:10 3.77963e-05
25 *156:37 *480:45 0.000273281
26 *156:37 *481:20 0.000278634
27 *156:37 *481:30 0.000344324
28 *156:37 *560:23 1.66113e-05
29 *156:37 *615:103 0.000165043
30 *1051:B *156:18 2.23143e-05
31 *55:12 *156:18 5.23455e-05
32 *152:35 *156:18 5.43589e-05
33 *154:8 *156:18 4.77164e-06
*RES
1 *1051:Y *156:4 23 
2 *156:4 *156:18 44.4633 
3 *156:18 *1139:A1 38 
4 *156:4 *156:37 43.3607 
5 *156:37 *1053:A 23 
*END

*D_NET *157 0.00035136
*CONN
*I *1053:B I *D sky130_fd_sc_hd__xnor2_2
*I *1052:X O *D sky130_fd_sc_hd__a21bo_2
*CAP
1 *1053:B 0
2 *1052:X 0.000100229
3 *157:8 0.000100229
4 *157:8 *1160:B 0
5 *157:8 *615:103 1.21819e-05
6 *156:37 *157:8 0.000138719
*RES
1 *1052:X *157:8 40.2579 
2 *157:8 *1053:B 38 
*END

*D_NET *158 0.00470228
*CONN
*I *1056:B1 I *D sky130_fd_sc_hd__a21oi_2
*I *1313:C1 I *D sky130_fd_sc_hd__a221o_2
*I *1130:C1 I *D sky130_fd_sc_hd__a221o_2
*I *1060:B1 I *D sky130_fd_sc_hd__a21oi_2
*I *1054:X O *D sky130_fd_sc_hd__o21a_2
*CAP
1 *1056:B1 1.33533e-05
2 *1313:C1 0
3 *1130:C1 0.00019338
4 *1060:B1 7.59018e-05
5 *1054:X 0.000557206
6 *158:27 0.000507266
7 *158:10 0.000933641
8 *1056:B1 *1054:B1 4.34745e-05
9 *1056:B1 *160:12 5.67058e-05
10 *1056:B1 *617:116 5.67058e-05
11 *1060:B1 *160:78 8.35348e-05
12 *1060:B1 *168:31 4.21594e-06
13 *1060:B1 *523:48 0
14 *1060:B1 *558:10 4.15283e-06
15 *1130:C1 *1130:B2 0.000140259
16 *1130:C1 *1138:B 2.91069e-05
17 *1130:C1 *168:10 0.000158474
18 *1130:C1 *593:23 1.05441e-05
19 *1130:C1 *607:49 5.72498e-05
20 *1130:C1 *615:84 7.88828e-05
21 *158:10 *1056:A2 9.62666e-05
22 *158:10 *160:12 9.84851e-05
23 *158:10 *165:23 6.713e-06
24 *158:10 *225:10 8.27285e-05
25 *158:10 *481:38 0
26 *158:10 *558:10 2.58035e-05
27 *158:27 *1138:B 3.20781e-05
28 *158:27 *481:38 0.000246827
29 *158:27 *481:52 0.000526927
30 *158:27 *593:23 7.38547e-05
31 *158:27 *614:74 0.000391224
32 *121:79 *158:10 1.21972e-05
33 *151:58 *158:10 0.000105117
*RES
1 *1054:X *158:10 46.2754 
2 *158:10 *1060:B1 39.3775 
3 *158:10 *158:27 18.4552 
4 *158:27 *1130:C1 42.8886 
5 *158:27 *1313:C1 38 
6 *1054:X *1056:B1 47.0979 
*END

*D_NET *159 0.000995059
*CONN
*I *1056:A2 I *D sky130_fd_sc_hd__a21oi_2
*I *1055:Y O *D sky130_fd_sc_hd__nor2_2
*CAP
1 *1056:A2 8.21204e-05
2 *1055:Y 0.000173334
3 *159:10 0.000255454
4 *159:10 *1149:B 4.8373e-05
5 *159:10 *180:54 0.000125336
6 *159:10 *480:57 1.24376e-05
7 *159:10 *560:70 6.53942e-05
8 *159:10 *617:112 3.39192e-05
9 *159:10 *617:122 3.93904e-06
10 *121:79 *1056:A2 9.84851e-05
11 *158:10 *1056:A2 9.62666e-05
*RES
1 *1055:Y *159:10 41.3557 
2 *159:10 *1056:A2 40.0507 
*END

*D_NET *160 0.00656831
*CONN
*I *1312:C I *D sky130_fd_sc_hd__nand4_2
*I *1130:A1 I *D sky130_fd_sc_hd__a221o_2
*I *1313:A1 I *D sky130_fd_sc_hd__a221o_2
*I *1138:A I *D sky130_fd_sc_hd__nand4_2
*I *1060:A1 I *D sky130_fd_sc_hd__a21oi_2
*I *1059:A I *D sky130_fd_sc_hd__xor2_2
*I *1056:Y O *D sky130_fd_sc_hd__a21oi_2
*CAP
1 *1312:C 0
2 *1130:A1 0
3 *1313:A1 0
4 *1138:A 0
5 *1060:A1 8.60401e-06
6 *1059:A 0.000166971
7 *1056:Y 0.000230558
8 *160:78 0.000262518
9 *160:60 0.00037422
10 *160:50 0.000628098
11 *160:35 0.000386992
12 *160:29 0.000738251
13 *160:14 0.000596784
14 *160:12 0.000309148
15 *1059:A *1059:B 0
16 *1059:A *180:32 0.000103168
17 *1059:A *405:8 5.67058e-05
18 *1059:A *405:20 0.000131027
19 *1059:A *479:54 8.1796e-05
20 *1059:A *523:48 6.44725e-05
21 *1059:A *615:84 4.66047e-05
22 *1060:A1 *162:10 1.474e-05
23 *160:12 *405:20 8.15224e-05
24 *160:12 *617:112 3.00764e-05
25 *160:12 *617:116 2.18506e-05
26 *160:14 *180:32 0.000121411
27 *160:14 *405:20 5.88369e-05
28 *160:29 *1066:A 0.000117759
29 *160:29 *162:10 5.78469e-05
30 *160:35 *1066:A 6.17437e-06
31 *160:35 *162:10 3.031e-05
32 *160:50 *1313:A2 7.27005e-05
33 *160:50 *162:10 3.11761e-05
34 *160:50 *162:12 5.12254e-05
35 *160:50 *168:31 1.56059e-05
36 *160:60 *1138:B 0
37 *160:60 *1313:B1 2.93747e-05
38 *160:60 *168:31 1.14876e-05
39 *160:60 *224:19 2.64616e-05
40 *160:60 *593:23 0.00013135
41 *160:60 *607:49 0.000373799
42 *160:78 *1130:B1 0.000114891
43 *160:78 *162:31 1.55941e-05
44 *160:78 *165:6 2.31797e-05
45 *160:78 *168:31 0
46 *160:78 *481:93 5.67058e-05
47 *160:78 *523:48 0
48 *160:78 *558:10 0.000288565
49 *160:78 *615:84 0.000361027
50 *1056:B1 *160:12 5.67058e-05
51 *1060:B1 *160:78 8.35348e-05
52 *158:10 *160:12 9.84851e-05
*RES
1 *1056:Y *160:12 42.3293 
2 *160:12 *160:14 1.90571 
3 *160:14 *1059:A 43.5929 
4 *160:14 *160:29 19.9093 
5 *160:29 *160:35 2.19571 
6 *160:35 *1060:A1 23.3211 
7 *160:35 *160:50 5.11643 
8 *160:50 *160:60 37.1464 
9 *160:60 *1138:A 23 
10 *160:50 *1313:A1 23 
11 *160:29 *160:78 38.3271 
12 *160:78 *1130:A1 23 
13 *160:12 *1312:C 38 
*END

*D_NET *161 0.00078129
*CONN
*I *1058:B1 I *D sky130_fd_sc_hd__a311o_2
*I *1057:X O *D sky130_fd_sc_hd__and2b_2
*CAP
1 *1058:B1 0
2 *1057:X 0.000229196
3 *161:10 0.000229196
4 *161:10 *240:42 6.16439e-05
5 *161:10 *560:43 0.000183457
6 *1050:B *161:10 6.18486e-05
7 *55:12 *161:10 1.59486e-05
*RES
1 *1057:X *161:10 41.9564 
2 *161:10 *1058:B1 38 
*END

*D_NET *162 0.00371888
*CONN
*I *1059:B I *D sky130_fd_sc_hd__xor2_2
*I *1060:A2 I *D sky130_fd_sc_hd__a21oi_2
*I *1130:A2 I *D sky130_fd_sc_hd__a221o_2
*I *1313:A2 I *D sky130_fd_sc_hd__a221o_2
*I *1058:X O *D sky130_fd_sc_hd__a311o_2
*CAP
1 *1059:B 0.000144512
2 *1060:A2 0
3 *1130:A2 0
4 *1313:A2 6.21301e-05
5 *1058:X 6.8611e-05
6 *162:31 0.000141505
7 *162:12 0.000237299
8 *162:10 0.000629489
9 *162:6 0.000808949
10 *1059:B *455:10 0
11 *1059:B *479:54 8.24341e-05
12 *1313:A2 *1313:B1 1.31263e-05
13 *1313:A2 *168:31 6.24228e-05
14 *162:6 *240:42 1.54983e-05
15 *162:6 *483:20 2.93845e-05
16 *162:10 *1066:A 0.000123944
17 *162:10 *1162:B 1.32939e-05
18 *162:10 *168:31 0.000390679
19 *162:10 *250:8 1.76557e-05
20 *162:10 *483:20 7.4416e-05
21 *162:12 *168:31 3.88766e-05
22 *162:31 *1130:B1 1.46586e-05
23 *162:31 *226:8 6.6869e-05
24 *162:31 *369:10 9.66498e-05
25 *162:31 *481:93 2.29936e-05
26 *162:31 *517:70 6.10551e-06
27 *162:31 *607:49 0
28 *1058:A3 *162:6 2.93845e-05
29 *1059:A *1059:B 0
30 *1060:A1 *162:10 1.474e-05
31 *151:39 *1059:B 3.33082e-05
32 *151:39 *162:6 0.000167786
33 *151:39 *162:10 5.3304e-05
34 *160:29 *162:10 5.78469e-05
35 *160:35 *162:10 3.031e-05
36 *160:50 *1313:A2 7.27005e-05
37 *160:50 *162:10 3.11761e-05
38 *160:50 *162:12 5.12254e-05
39 *160:78 *162:31 1.55941e-05
*RES
1 *1058:X *162:6 25.0507 
2 *162:6 *162:10 12.5529 
3 *162:10 *162:12 1.09786 
4 *162:12 *1313:A2 24.9886 
5 *162:12 *162:31 33.133 
6 *162:31 *1130:A2 23 
7 *162:10 *1060:A2 23 
8 *162:6 *1059:B 32.61 
*END

*D_NET *163 0.000385343
*CONN
*I *1066:A I *D sky130_fd_sc_hd__xnor2_2
*I *1060:Y O *D sky130_fd_sc_hd__a21oi_2
*CAP
1 *1066:A 6.87326e-05
2 *1060:Y 6.87326e-05
3 *160:29 *1066:A 0.000117759
4 *160:35 *1066:A 6.17437e-06
5 *162:10 *1066:A 0.000123944
*RES
1 *1060:Y *1066:A 48.5271 
*END

*D_NET *164 0.00599999
*CONN
*I *1063:B I *D sky130_fd_sc_hd__nand2_2
*I *1313:B1 I *D sky130_fd_sc_hd__a221o_2
*I *1064:B I *D sky130_fd_sc_hd__or2_2
*I *1309:A1 I *D sky130_fd_sc_hd__mux2_1
*I *1308:A1 I *D sky130_fd_sc_hd__o21ai_2
*I *1061:Y O *D sky130_fd_sc_hd__nor2_2
*CAP
1 *1063:B 0
2 *1313:B1 0.000169923
3 *1064:B 3.06929e-05
4 *1309:A1 0
5 *1308:A1 0
6 *1061:Y 0.000266378
7 *164:67 0.000266378
8 *164:38 0.000760412
9 *164:24 0.000164413
10 *164:16 0.000467656
11 *164:6 0.000505033
12 *164:4 0.000761586
13 *1064:B *1064:A 0.000100805
14 *1064:B *1314:A1 6.17437e-06
15 *1064:B *167:6 7.12732e-05
16 *1313:B1 *1314:A1 0
17 *1313:B1 *167:6 5.56279e-05
18 *1313:B1 *168:31 9.62666e-05
19 *1313:B1 *593:23 1.37039e-05
20 *164:6 *370:10 0.0002246
21 *164:6 *481:62 1.41129e-05
22 *164:16 *365:25 1.21972e-05
23 *164:16 *481:62 2.02872e-05
24 *164:16 *481:70 0.000215048
25 *164:16 *558:32 0.000263814
26 *164:16 *589:35 2.82611e-05
27 *164:16 *590:33 9.64943e-05
28 *164:16 *617:100 7.1459e-05
29 *164:24 *200:50 0.000193925
30 *164:24 *363:10 0.000201809
31 *164:38 *1064:A 0.000142585
32 *164:38 *1314:A1 2.31678e-05
33 *164:38 *370:10 0.000216471
34 *164:38 *481:52 0.000203902
35 *164:67 *166:8 0.000104454
36 *164:67 *446:12 4.95487e-06
37 *164:67 *481:52 0.000111856
38 *164:67 *481:62 1.32314e-05
39 *164:67 *517:70 5.85423e-05
40 *1313:A2 *1313:B1 1.31263e-05
41 *160:60 *1313:B1 2.93747e-05
*RES
1 *1061:Y *164:4 23 
2 *164:4 *164:6 3.00357 
3 *164:6 *164:16 36.3593 
4 *164:16 *164:24 33.5836 
5 *164:24 *1308:A1 23 
6 *164:6 *1309:A1 23 
7 *164:4 *164:38 9.09357 
8 *164:38 *1064:B 24.5743 
9 *164:38 *1313:B1 26.9979 
10 *1061:Y *164:67 43.1371 
11 *164:67 *1063:B 38 
*END

*D_NET *165 0.00165442
*CONN
*I *1129:B I *D sky130_fd_sc_hd__or2_2
*I *1130:B1 I *D sky130_fd_sc_hd__a221o_2
*I *1062:X O *D sky130_fd_sc_hd__or2_2
*CAP
1 *1129:B 0
2 *1130:B1 0.000197181
3 *1062:X 8.48915e-05
4 *165:23 0.000222244
5 *165:6 0.000504316
6 *1130:B1 *1130:B2 1.89095e-05
7 *1130:B1 *481:93 5.50106e-05
8 *1130:B1 *615:84 1.76557e-05
9 *165:23 *226:8 3.24739e-05
10 *165:23 *481:93 8.34416e-05
11 *165:23 *558:10 0.000278853
12 *158:10 *165:23 6.713e-06
13 *160:78 *1130:B1 0.000114891
14 *160:78 *165:6 2.31797e-05
15 *162:31 *1130:B1 1.46586e-05
*RES
1 *1062:X *165:6 24.0979 
2 *165:6 *1130:B1 27.8264 
3 *165:6 *165:23 34.3707 
4 *165:23 *1129:B 23 
*END

*D_NET *166 0.000974259
*CONN
*I *1065:A I *D sky130_fd_sc_hd__nand2_2
*I *1314:B1_N I *D sky130_fd_sc_hd__a21bo_2
*I *1063:Y O *D sky130_fd_sc_hd__nand2_2
*CAP
1 *1065:A 5.65555e-05
2 *1314:B1_N 1.88281e-05
3 *1063:Y 0.000164995
4 *166:8 0.000127267
5 *1065:A *1063:A 0.000100803
6 *1065:A *1130:B2 7.71518e-05
7 *1065:A *615:84 0.000231852
8 *1314:B1_N *481:52 2.75971e-05
9 *166:8 *446:12 5.64598e-05
10 *166:8 *446:22 8.29585e-06
11 *164:67 *166:8 0.000104454
*RES
1 *1063:Y *166:8 40.2579 
2 *166:8 *1314:B1_N 38.3211 
3 *1063:Y *1065:A 49.0243 
*END

*D_NET *167 0.00106376
*CONN
*I *1065:B I *D sky130_fd_sc_hd__nand2_2
*I *1314:A1 I *D sky130_fd_sc_hd__a21bo_2
*I *1064:X O *D sky130_fd_sc_hd__or2_2
*CAP
1 *1065:B 0
2 *1314:A1 0.00013053
3 *1064:X 9.40872e-05
4 *167:21 0.000130642
5 *167:6 0.00035526
6 *1314:A1 *1064:A 1.21972e-05
7 *167:21 *1138:B 0
8 *167:21 *168:10 0
9 *167:21 *592:14 0.0001848
10 *1064:B *1314:A1 6.17437e-06
11 *1064:B *167:6 7.12732e-05
12 *1313:B1 *1314:A1 0
13 *1313:B1 *167:6 5.56279e-05
14 *164:38 *1314:A1 2.31678e-05
*RES
1 *1064:X *167:6 25.0507 
2 *167:6 *1314:A1 25.0714 
3 *167:6 *167:21 32.61 
4 *167:21 *1065:B 23 
*END

*D_NET *168 0.00384841
*CONN
*I *1066:B I *D sky130_fd_sc_hd__xnor2_2
*I *1138:B I *D sky130_fd_sc_hd__nand4_2
*I *1065:Y O *D sky130_fd_sc_hd__nand2_2
*CAP
1 *1066:B 0
2 *1138:B 0.00055313
3 *1065:Y 0.000121841
4 *168:31 0.000732975
5 *168:10 0.00140795
6 *1138:B *224:19 2.93845e-05
7 *1138:B *234:8 3.61511e-05
8 *1138:B *368:12 0
9 *1138:B *592:10 0
10 *1138:B *593:23 2.17782e-05
11 *168:10 *1130:B2 5.50049e-05
12 *168:10 *615:84 3.22879e-05
13 *168:31 *523:48 1.86973e-05
14 *1060:B1 *168:31 4.21594e-06
15 *1130:C1 *1138:B 2.91069e-05
16 *1130:C1 *168:10 0.000158474
17 *1313:A2 *168:31 6.24228e-05
18 *1313:B1 *168:31 9.62666e-05
19 *158:27 *1138:B 3.20781e-05
20 *160:50 *168:31 1.56059e-05
21 *160:60 *1138:B 0
22 *160:60 *168:31 1.14876e-05
23 *160:78 *168:31 0
24 *162:10 *168:31 0.000390679
25 *162:12 *168:31 3.88766e-05
26 *167:21 *1138:B 0
27 *167:21 *168:10 0
*RES
1 *1065:Y *168:10 40.8793 
2 *168:10 *1138:B 46.0786 
3 *168:10 *168:31 40.5229 
4 *168:31 *1066:B 38 
*END

*D_NET *169 0.00162366
*CONN
*I *1068:B I *D sky130_fd_sc_hd__or4bb_2
*I *1067:Y O *D sky130_fd_sc_hd__nand2_2
*CAP
1 *1068:B 0
2 *1067:Y 0.000351995
3 *169:16 0.000351995
4 *169:16 *1310:A1 0.000556198
5 *169:16 *170:27 5.67058e-05
6 *169:16 *589:16 0.000149365
7 *169:16 *589:23 0.000102389
8 *169:16 *634:8 5.50106e-05
*RES
1 *1067:Y *169:16 32.9014 
2 *169:16 *1068:B 23 
*END

*D_NET *170 0.00372182
*CONN
*I *1085:A I *D sky130_fd_sc_hd__nor3_2
*I *1074:B1 I *D sky130_fd_sc_hd__o211a_2
*I *1068:X O *D sky130_fd_sc_hd__or4bb_2
*CAP
1 *1085:A 0
2 *1074:B1 0
3 *1068:X 0
4 *170:27 0.000127265
5 *170:12 0.000916181
6 *170:4 0.00104345
7 *170:12 *1222:B1 3.39192e-05
8 *170:12 *1310:A1 0.000734069
9 *170:12 *1537:A 0.000199317
10 *170:12 *191:8 3.78609e-05
11 *170:12 *581:31 9.66692e-05
12 *170:12 *583:22 2.47233e-05
13 *170:12 *620:38 0.000117087
14 *170:12 *621:74 0.000201024
15 *170:27 *1084:A1 2.21277e-05
16 *170:27 *1310:A1 9.49528e-05
17 *170:27 *594:27 2.75733e-06
18 *170:27 *594:40 1.37136e-05
19 *169:16 *170:27 5.67058e-05
*RES
1 *1068:X *170:4 23 
2 *170:4 *170:12 45.7843 
3 *170:12 *1074:B1 23 
4 *170:4 *170:27 32.0921 
5 *170:27 *1085:A 23 
*END

*D_NET *171 0.000471272
*CONN
*I *1070:B I *D sky130_fd_sc_hd__nand2_2
*I *1069:X O *D sky130_fd_sc_hd__a211o_2
*CAP
1 *1070:B 0.000122939
2 *1069:X 0.000122939
3 *1070:B *596:79 0.000225393
*RES
1 *1069:X *1070:B 49.0243 
*END

*D_NET *172 0.00184525
*CONN
*I *1074:C1 I *D sky130_fd_sc_hd__o211a_2
*I *1070:Y O *D sky130_fd_sc_hd__nand2_2
*CAP
1 *1074:C1 0.000105113
2 *1070:Y 0.000273932
3 *172:8 0.000379046
4 *1074:C1 *1074:A2 0.000308045
5 *1074:C1 *1222:B1 5.50106e-05
6 *1074:C1 *200:79 9.67842e-05
7 *1074:C1 *558:68 4.5051e-05
8 *172:8 *1222:A2 4.24694e-06
9 *172:8 *191:30 0.000228291
10 *172:8 *200:73 6.73456e-05
11 *172:8 *471:52 0.000271838
12 *172:8 *581:18 1.05441e-05
*RES
1 *1070:Y *172:8 43.7793 
2 *172:8 *1074:C1 41.48 
*END

*D_NET *173 0.0189942
*CONN
*I *1333:A1 I *D sky130_fd_sc_hd__o22a_2
*I *1336:A I *D sky130_fd_sc_hd__or2_2
*I *1072:B I *D sky130_fd_sc_hd__nor2_2
*I *1071:X O *D sky130_fd_sc_hd__or2_2
*CAP
1 *1333:A1 0
2 *1336:A 0.000226024
3 *1072:B 0
4 *1071:X 0.000322733
5 *173:66 0.000648214
6 *173:47 0.00149777
7 *173:28 0.00051298
8 *173:22 0.0029102
9 *173:18 0.00213736
10 *173:10 0.000686408
11 *1336:A *1194:A 4.00259e-06
12 *1336:A *390:12 0
13 *1336:A *392:10 5.50106e-05
14 *1336:A *463:60 0
15 *1336:A *467:28 1.41077e-05
16 *1336:A *598:40 0.000324665
17 *173:10 *1096:A1 5.67058e-05
18 *173:10 *201:14 0.000115539
19 *173:10 *286:10 0.000128628
20 *173:10 *456:214 5.50106e-05
21 *173:18 *209:10 4.36547e-05
22 *173:18 *287:16 3.51199e-05
23 *173:18 *306:32 3.95946e-05
24 *173:18 *330:22 0.000135037
25 *173:18 *574:41 4.09412e-06
26 *173:18 *621:46 8.62876e-05
27 *173:22 *259:24 0.00106105
28 *173:22 *277:25 0.000224907
29 *173:22 *284:22 0.000722248
30 *173:22 *461:97 0.000880649
31 *173:22 *621:72 3.71224e-05
32 *173:22 *624:59 2.14643e-05
33 *173:28 *456:103 0.000748941
34 *173:28 *474:39 0.000124901
35 *173:28 *498:29 0.000134586
36 *173:28 *569:81 1.27408e-05
37 *173:47 *1428:RESET_B 0
38 *173:47 *269:10 9.42974e-05
39 *173:47 *284:22 8.97262e-05
40 *173:47 *300:50 0.00013443
41 *173:47 *456:103 3.93904e-06
42 *173:47 *461:97 0.000117848
43 *173:47 *465:16 0.00019283
44 *173:47 *474:39 0.00082
45 *173:47 *598:40 0.000450452
46 *173:66 *1107:A 2.01379e-05
47 *173:66 *1436:RESET_B 1.13589e-05
48 *173:66 *209:10 0.00012148
49 *173:66 *300:32 0.000210501
50 *173:66 *463:8 0.000101527
51 *173:66 *463:40 0.000222513
52 *173:66 *473:51 4.60157e-05
53 *173:66 *488:22 2.97009e-05
54 *173:66 *573:18 4.77247e-05
55 *173:66 *573:47 0.000172312
56 *173:66 *574:41 4.36778e-05
57 *173:66 *575:49 2.4917e-05
58 *173:66 *602:116 0.000149697
59 *33:8 *173:47 0.000151991
60 *64:30 *173:22 0.000163908
61 *67:8 *173:10 0.000248559
62 *120:8 *173:47 0.000177992
63 *141:28 *173:18 0.000347561
64 *141:34 *173:10 6.56459e-05
65 *141:92 *173:28 0.000385429
66 *141:92 *173:47 0.000340302
*RES
1 *1071:X *173:10 44.7529 
2 *173:10 *173:18 36.8254 
3 *173:18 *173:22 12.0059 
4 *173:22 *173:28 34.9418 
5 *173:28 *1072:B 23 
6 *173:22 *173:47 49.9181 
7 *173:47 *1336:A 28.3029 
8 *173:18 *173:66 29.4689 
9 *173:66 *1333:A1 23 
*END

*D_NET *174 0.00473025
*CONN
*I *1074:A1 I *D sky130_fd_sc_hd__o211a_2
*I *1324:B I *D sky130_fd_sc_hd__nor2_2
*I *1325:A1 I *D sky130_fd_sc_hd__a22o_2
*I *1072:Y O *D sky130_fd_sc_hd__nor2_2
*CAP
1 *1074:A1 8.33971e-06
2 *1324:B 0.000200044
3 *1325:A1 9.05148e-05
4 *1072:Y 0.00013763
5 *174:40 0.000745789
6 *174:10 0.00049862
7 *174:8 0.00108314
8 *1074:A1 *349:12 3.84478e-06
9 *1074:A1 *558:68 6.39489e-06
10 *1324:B *1018:A 0
11 *1324:B *380:10 0.000138177
12 *1324:B *581:10 0
13 *1324:B *591:29 9.86551e-06
14 *1324:B *631:67 2.75733e-06
15 *174:8 *474:43 6.17437e-06
16 *174:8 *561:35 4.39488e-05
17 *174:8 *596:79 0.000352421
18 *174:8 *630:108 5.50106e-05
19 *174:10 *581:18 3.63094e-05
20 *174:10 *590:51 0
21 *174:10 *630:108 0
22 *174:40 *1537:A 0.00012797
23 *174:40 *596:79 0.000648028
24 *174:40 *596:85 0.00032586
25 *174:40 *621:74 0.000209412
*RES
1 *1072:Y *174:8 41.9564 
2 *174:8 *174:10 2.96214 
3 *174:10 *1325:A1 39.0979 
4 *174:10 *1324:B 41.9357 
5 *174:8 *174:40 42.8636 
6 *174:40 *1074:A1 38.1502 
*END

*D_NET *175 0.00703757
*CONN
*I *1074:A2 I *D sky130_fd_sc_hd__o211a_2
*I *1079:B1 I *D sky130_fd_sc_hd__a21o_2
*I *1073:Y O *D sky130_fd_sc_hd__nand2_2
*CAP
1 *1074:A2 0.000366543
2 *1079:B1 0
3 *1073:Y 0.000370202
4 *175:20 0.00109976
5 *175:8 0.00183651
6 *1074:A2 *1222:B1 2.18409e-05
7 *1074:A2 *200:79 6.08617e-05
8 *1074:A2 *288:6 5.97178e-05
9 *1074:A2 *289:10 2.93747e-05
10 *1074:A2 *349:12 0.000341799
11 *1074:A2 *558:68 2.62931e-05
12 *175:8 *1294:B 7.89883e-05
13 *175:8 *211:8 8.46655e-05
14 *175:8 *474:39 1.74874e-06
15 *175:8 *630:84 2.90725e-05
16 *175:20 *1009:A 9.84794e-05
17 *175:20 *1035:A 2.33476e-05
18 *175:20 *1079:A2 8.18139e-05
19 *175:20 *1215:A2 0
20 *175:20 *1223:B 0.000184741
21 *175:20 *1236:B 0.000286508
22 *175:20 *1236:C_N 5.41288e-05
23 *175:20 *176:58 0.00010018
24 *175:20 *200:79 0
25 *175:20 *211:8 2.07444e-05
26 *175:20 *280:14 0.00020263
27 *175:20 *280:16 0.000231357
28 *175:20 *283:24 2.46922e-05
29 *175:20 *289:10 0.000132912
30 *175:20 *293:10 8.83864e-05
31 *175:20 *293:20 0.000223655
32 *175:20 *300:50 0.000230818
33 *175:20 *456:103 4.70852e-05
34 *175:20 *461:81 0
35 *175:20 *474:39 6.03461e-05
36 *1074:C1 *1074:A2 0.000308045
37 *1236:A *175:20 4.09312e-05
38 *144:10 *175:20 0.000189383
*RES
1 *1073:Y *175:8 43.075 
2 *175:8 *175:20 40.0436 
3 *175:20 *1079:B1 23 
4 *175:8 *1074:A2 47.3629 
*END

*D_NET *176 0.00960802
*CONN
*I *1079:A1 I *D sky130_fd_sc_hd__a21o_2
*I *1341:A1 I *D sky130_fd_sc_hd__o21a_2
*I *1334:A1 I *D sky130_fd_sc_hd__o211a_2
*I *1075:Y O *D sky130_fd_sc_hd__nand2b_2
*CAP
1 *1079:A1 0
2 *1341:A1 0.00025307
3 *1334:A1 0.000328087
4 *1075:Y 0.000209583
5 *176:58 0.00129621
6 *176:14 0.00123138
7 *176:10 0.00215602
8 *1334:A1 *1334:C1 0.000264564
9 *1334:A1 *1423:RESET_B 5.62786e-05
10 *1334:A1 *463:60 1.77524e-05
11 *1341:A1 *263:8 2.18506e-05
12 *1341:A1 *264:10 5.50049e-05
13 *1341:A1 *393:10 0.000230671
14 *1341:A1 *397:8 4.55155e-05
15 *1341:A1 *470:21 1.13579e-05
16 *176:10 *1255:C 6.9805e-05
17 *176:10 *562:51 5.3304e-05
18 *176:10 *570:10 2.88275e-05
19 *176:10 *574:41 9.86959e-05
20 *176:10 *599:18 0.000297695
21 *176:10 *602:126 8.95826e-05
22 *176:14 *1337:A1 3.16792e-05
23 *176:14 *1341:B1 0
24 *176:14 *203:16 4.47524e-05
25 *176:14 *393:10 0.000106814
26 *176:14 *397:8 5.95981e-05
27 *176:14 *570:10 6.81645e-05
28 *176:14 *570:47 0
29 *176:14 *574:41 0.000121353
30 *176:58 *1079:A2 9.0758e-05
31 *176:58 *1240:A1 9.5877e-05
32 *176:58 *1240:A2 3.27248e-05
33 *176:58 *1240:B1 5.3304e-05
34 *176:58 *179:66 0.000446536
35 *176:58 *300:22 2.12347e-06
36 *176:58 *304:28 0.000623038
37 *176:58 *306:55 9.28078e-06
38 *176:58 *318:32 0.000843444
39 *176:58 *460:34 1.67025e-05
40 *36:8 *176:58 1.78258e-05
41 *117:10 *176:14 2.85976e-05
42 *175:20 *176:58 0.00010018
*RES
1 *1075:Y *176:10 44.2868 
2 *176:10 *176:14 10.9268 
3 *176:14 *1334:A1 43.7637 
4 *176:14 *1341:A1 43.2614 
5 *176:10 *176:58 46.4344 
6 *176:58 *1079:A1 23 
*END

*D_NET *177 0.0114945
*CONN
*I *1329:A1 I *D sky130_fd_sc_hd__o21ba_2
*I *1077:C I *D sky130_fd_sc_hd__or3_2
*I *1340:A1 I *D sky130_fd_sc_hd__o22a_2
*I *1076:Y O *D sky130_fd_sc_hd__nand2b_2
*CAP
1 *1329:A1 0.000374571
2 *1077:C 0
3 *1340:A1 0.000106676
4 *1076:Y 9.34041e-05
5 *177:41 0.00149102
6 *177:29 0.0020914
7 *177:12 0.000957312
8 *177:10 0.000718231
9 *1329:A1 *1329:A2 3.61227e-05
10 *1329:A1 *1341:B1 0.000385605
11 *1329:A1 *1436:CLK 4.45839e-05
12 *1329:A1 *1519:A 7.41402e-05
13 *1329:A1 *457:49 9.92336e-05
14 *1329:A1 *462:50 8.78765e-06
15 *1340:A1 *388:10 0.00016121
16 *1340:A1 *463:14 0.000185605
17 *177:10 *1076:A_N 1.24376e-05
18 *177:10 *285:36 5.50106e-05
19 *177:10 *307:18 6.53382e-05
20 *177:12 *1436:CLK 7.11666e-05
21 *177:12 *1519:A 0.000206253
22 *177:12 *285:36 0.000198514
23 *177:12 *562:51 0.000807687
24 *177:12 *563:12 0.000219335
25 *177:12 *628:30 6.77278e-05
26 *177:29 *1436:CLK 0.000238929
27 *177:29 *1519:A 0.000102827
28 *177:41 *1437:RESET_B 7.57281e-06
29 *177:41 *397:26 0.000593353
30 *177:41 *398:12 4.5051e-05
31 *177:41 *457:20 0.000141954
32 *177:41 *474:39 0.000220249
33 *177:41 *488:22 0.000243647
34 *177:41 *575:65 5.50106e-05
35 uio_oe[0] *177:41 4.62763e-05
36 *23:12 *177:41 0.000866261
37 *25:10 *1329:A1 0.000248021
38 *144:26 *177:41 0.000153998
*RES
1 *1076:Y *177:10 40.0714 
2 *177:10 *177:12 14.2307 
3 *177:12 *1340:A1 41.1693 
4 *177:12 *177:29 4.11179 
5 *177:29 *177:41 36.8154 
6 *177:41 *1077:C 23 
7 *177:29 *1329:A1 47.3111 
*END

*D_NET *178 0.0016184
*CONN
*I *1079:A2 I *D sky130_fd_sc_hd__a21o_2
*I *1077:X O *D sky130_fd_sc_hd__or3_2
*CAP
1 *1079:A2 0.000196708
2 *1077:X 0.000276708
3 *178:8 0.000473416
4 *1079:A2 *1240:A2 5.3304e-05
5 *178:8 *1077:A 0
6 *178:8 *1240:A1 8.62783e-05
7 *178:8 *1437:RESET_B 0.000158247
8 *178:8 *575:65 4.6318e-06
9 uio_out[6] *178:8 9.80568e-05
10 *36:8 *1079:A2 9.84794e-05
11 *175:20 *1079:A2 8.18139e-05
12 *176:58 *1079:A2 9.0758e-05
*RES
1 *1077:X *178:8 43.075 
2 *178:8 *1079:A2 42.93 
*END

*D_NET *179 0.0201584
*CONN
*I *1294:C I *D sky130_fd_sc_hd__or4_2
*I *1333:B2 I *D sky130_fd_sc_hd__o22a_2
*I *1340:B2 I *D sky130_fd_sc_hd__o22a_2
*I *1078:Y O *D sky130_fd_sc_hd__nand2_2
*CAP
1 *1294:C 6.74764e-05
2 *1333:B2 0
3 *1340:B2 2.32701e-05
4 *1078:Y 2.43867e-05
5 *179:66 0.00307739
6 *179:47 0.000755921
7 *179:18 0.000959635
8 *179:14 0.0040623
9 *179:8 0.000896335
10 *1340:B2 *394:20 5.3304e-05
11 *1340:B2 *463:14 5.3304e-05
12 *179:8 *1078:A 0.00010018
13 *179:8 *564:37 2.32004e-05
14 *179:8 *629:43 5.3304e-05
15 *179:14 *202:22 0.000685356
16 *179:14 *259:24 0.00035949
17 *179:14 *259:40 0.000101638
18 *179:14 *311:10 3.17092e-05
19 *179:14 *316:8 0.000594602
20 *179:14 *335:24 0.000608711
21 *179:14 *503:50 1.418e-05
22 *179:14 *629:43 8.81675e-05
23 *179:18 *259:40 0.000197519
24 *179:18 *316:8 1.02029e-05
25 *179:18 *566:10 0.00016
26 *179:47 *1173:A 0.000678037
27 *179:47 *255:20 0.000356366
28 *179:47 *259:40 0.000137334
29 *179:47 *457:66 6.51477e-06
30 *179:47 *462:50 7.37405e-05
31 *179:47 *566:10 0.000144515
32 *179:66 *1035:A 0.000138226
33 *179:66 *1215:A2 0.00016216
34 *179:66 *200:79 0.000262011
35 *179:66 *293:20 0
36 *179:66 *318:32 0.00018757
37 *179:66 *349:20 3.11088e-05
38 *179:66 *460:34 3.98968e-05
39 *179:66 *461:81 0.00046008
40 *179:66 *471:52 0.00116367
41 *179:66 *486:20 0.000628417
42 *179:66 *495:14 0.000238776
43 *179:66 *566:14 2.81221e-05
44 *179:66 *566:48 0.000133579
45 *179:66 *569:81 0.000941321
46 *179:66 *575:49 0.000438257
47 *179:66 *628:30 0.000248073
48 *1294:A *1294:C 0.00010018
49 *75:8 *179:14 1.38235e-05
50 *117:10 *179:47 9.84851e-05
51 *144:26 *179:66 0
52 *176:58 *179:66 0.000446536
*RES
1 *1078:Y *179:8 39.0979 
2 *179:8 *179:14 20.9836 
3 *179:14 *179:18 3.58357 
4 *179:18 *1340:B2 38.6214 
5 *179:18 *179:47 31.6129 
6 *179:47 *1333:B2 23 
7 *179:14 *179:66 39.7611 
8 *179:66 *1294:C 39.5743 
*END

*D_NET *180 0.015355
*CONN
*I *1312:D I *D sky130_fd_sc_hd__nand4_2
*I *1081:B I *D sky130_fd_sc_hd__nand2_2
*I *1082:D I *D sky130_fd_sc_hd__and4b_2
*I *1080:X O *D sky130_fd_sc_hd__and4_2
*CAP
1 *1312:D 0
2 *1081:B 0
3 *1082:D 0
4 *1080:X 0.00038023
5 *180:83 8.56014e-05
6 *180:70 0.000776416
7 *180:54 0.00185764
8 *180:32 0.00285639
9 *180:12 0.00224099
10 *180:12 *452:16 0
11 *180:12 *453:28 0.00137972
12 *180:12 *577:43 0.000738985
13 *180:32 *1578:addr[11] 0.000645417
14 *180:32 *368:6 5.67058e-05
15 *180:32 *478:58 4.2684e-05
16 *180:32 *481:38 0
17 *180:32 *523:48 0.00050513
18 *180:32 *577:43 6.77824e-05
19 *180:32 *614:74 0.000117118
20 *180:54 *1092:B 7.67847e-05
21 *180:54 *1148:A 0.000149541
22 *180:54 *181:6 8.34394e-05
23 *180:54 *368:6 5.50106e-05
24 *180:54 *446:22 0.000530841
25 *180:54 *481:38 7.89883e-05
26 *180:54 *485:21 0.000227399
27 *180:54 *617:112 0.000124919
28 *180:70 *1303:A1 0.000347301
29 *180:70 *1303:A2 0.000235108
30 *180:70 *1465:SET_B 0
31 *180:70 *181:6 0.000185428
32 *180:70 *359:10 1.03836e-05
33 *180:70 *447:10 1.94418e-05
34 *180:70 *486:50 0.000136743
35 *180:70 *517:70 0.000488455
36 *180:70 *521:12 1.09903e-05
37 *180:70 *536:10 8.25811e-05
38 *180:70 *555:17 0
39 *180:70 *587:16 0.000133216
40 *180:70 *606:10 0
41 *180:70 *611:35 6.10551e-06
42 *180:83 *1465:SET_B 8.28736e-05
43 *180:83 *181:6 2.64616e-05
44 *180:83 *347:14 1.14452e-05
45 *180:83 *517:70 0
46 *1059:A *180:32 0.000103168
47 *87:10 *180:70 0
48 *87:18 *180:70 1.12487e-05
49 *121:79 *180:54 9.24795e-06
50 *121:79 *180:83 5.50049e-05
51 *145:23 *180:12 4.21594e-06
52 *151:58 *180:32 2.18409e-05
53 *151:58 *180:54 1.56621e-05
54 *151:60 *180:54 3.3577e-05
55 *159:10 *180:54 0.000125336
56 *160:14 *180:32 0.000121411
*RES
1 *1080:X *180:12 49.5286 
2 *180:12 *180:32 48.2145 
3 *180:32 *180:54 48.8707 
4 *180:54 *180:70 47.7521 
5 *180:70 *1082:D 23 
6 *180:54 *180:83 31.8229 
7 *180:83 *1081:B 23 
8 *180:32 *1312:D 23 
*END

*D_NET *181 0.00125317
*CONN
*I *1139:A2 I *D sky130_fd_sc_hd__o41a_2
*I *1081:Y O *D sky130_fd_sc_hd__nand2_2
*CAP
1 *1139:A2 0
2 *1081:Y 0.000294015
3 *181:6 0.000294015
4 *181:6 *1124:B 1.03836e-05
5 *181:6 *1139:B1 6.17437e-06
6 *181:6 *220:10 0.000265472
7 *121:79 *181:6 8.77809e-05
8 *180:54 *181:6 8.34394e-05
9 *180:70 *181:6 0.000185428
10 *180:83 *181:6 2.64616e-05
*RES
1 *1081:Y *181:6 29.815 
2 *181:6 *1139:A2 23 
*END

*D_NET *182 0.000500194
*CONN
*I *1085:B I *D sky130_fd_sc_hd__nor3_2
*I *1083:X O *D sky130_fd_sc_hd__and3_2
*CAP
1 *1085:B 0
2 *1083:X 0.000154358
3 *182:10 0.000154358
4 *182:10 *183:14 1.05441e-05
5 *182:10 *614:44 1.14452e-05
6 *182:10 *614:55 0.000162774
7 *182:10 *615:55 6.71408e-06
8 *182:10 *615:63 0
*RES
1 *1083:X *182:10 40.8793 
2 *182:10 *1085:B 38 
*END

*D_NET *183 0.000726852
*CONN
*I *1085:C I *D sky130_fd_sc_hd__nor3_2
*I *1084:Y O *D sky130_fd_sc_hd__a21oi_2
*CAP
1 *1085:C 0
2 *1084:Y 0.000195242
3 *183:14 0.000195242
4 *183:14 *1084:A1 2.12347e-06
5 *183:14 *1307:A1 5.50106e-05
6 *183:14 *581:46 6.17437e-06
7 *183:14 *581:67 2.32101e-05
8 *183:14 *614:55 0.000126096
9 *183:14 *634:10 0.000113208
10 *182:10 *183:14 1.05441e-05
*RES
1 *1084:Y *183:14 41.9979 
2 *183:14 *1085:C 38 
*END

*D_NET *184 0.000721962
*CONN
*I *1091:A I *D sky130_fd_sc_hd__or4b_2
*I *1087:X O *D sky130_fd_sc_hd__a2bb2o_2
*CAP
1 *1091:A 2.44744e-05
2 *1087:X 0.000179218
3 *184:10 0.000203693
4 *1091:A *595:55 5.41288e-05
5 *1091:A *630:72 9.84794e-05
6 *184:10 *1087:A2_N 5.95625e-06
7 *184:10 *186:18 4.77164e-06
8 *184:10 *187:10 9.28078e-06
9 *184:10 *595:55 0.00014196
*RES
1 *1087:X *184:10 40.7757 
2 *184:10 *1091:A 39.0979 
*END

*D_NET *185 0.0012862
*CONN
*I *1091:D_N I *D sky130_fd_sc_hd__or4b_2
*I *1088:X O *D sky130_fd_sc_hd__o22a_2
*CAP
1 *1091:D_N 0
2 *1088:X 0.000437981
3 *185:10 0.000437981
4 *185:10 *211:24 2.75733e-06
5 *185:10 *461:97 5.58152e-06
6 *185:10 *506:31 0.000401899
*RES
1 *1088:X *185:10 44.6907 
2 *185:10 *1091:D_N 38 
*END

*D_NET *186 0.00495134
*CONN
*I *1091:B I *D sky130_fd_sc_hd__or4b_2
*I *1089:X O *D sky130_fd_sc_hd__xor2_2
*CAP
1 *1091:B 0
2 *1089:X 0.0012664
3 *186:18 0.000204997
4 *186:12 0.0014714
5 *186:12 *1104:B 5.67058e-05
6 *186:12 *1176:B 3.22879e-05
7 *186:12 *1281:A 8.1796e-05
8 *186:12 *1281:B 1.76557e-05
9 *186:12 *258:10 0.000446281
10 *186:12 *261:12 9.0029e-05
11 *186:12 *338:14 0.000757186
12 *186:12 *338:22 0.00010655
13 *186:12 *472:66 9.84851e-05
14 *186:12 *474:70 2.93747e-05
15 *186:12 *503:24 5.67058e-05
16 *186:12 *506:31 0.000181579
17 *186:12 *584:46 4.91297e-05
18 *186:18 *1088:B1 0
19 *186:18 *473:83 0
20 *184:10 *186:18 4.77164e-06
*RES
1 *1089:X *186:12 48.5821 
2 *186:12 *186:18 32.61 
3 *186:18 *1091:B 23 
*END

*D_NET *187 0.00100706
*CONN
*I *1091:C I *D sky130_fd_sc_hd__or4b_2
*I *1090:X O *D sky130_fd_sc_hd__a22o_2
*CAP
1 *1091:C 0
2 *1090:X 0.00024601
3 *187:10 0.00024601
4 *187:10 *1087:A2_N 5.69874e-05
5 *187:10 *1090:B1 4.51797e-05
6 *187:10 *1420:CLK 0.000137651
7 *187:10 *596:55 0
8 *187:10 *596:61 0.000128291
9 *1090:B2 *187:10 0.000137651
10 *184:10 *187:10 9.28078e-06
*RES
1 *1090:X *187:10 42.8886 
2 *187:10 *1091:C 38 
*END

*D_NET *188 0.00110028
*CONN
*I *1098:A I *D sky130_fd_sc_hd__or4b_2
*I *1091:X O *D sky130_fd_sc_hd__or4b_2
*CAP
1 *1098:A 0
2 *1091:X 0.000133803
3 *188:8 0.000133803
4 *188:8 *195:12 0.00015116
5 *188:8 *595:41 2.68376e-07
6 *188:8 *595:55 0.000519487
7 *188:8 *630:72 0.000161762
*RES
1 *1091:X *188:8 29.2246 
2 *188:8 *1098:A 23 
*END

*D_NET *189 0.0131118
*CONN
*I *1095:B I *D sky130_fd_sc_hd__or2_2
*I *1093:A I *D sky130_fd_sc_hd__inv_2
*I *1094:B I *D sky130_fd_sc_hd__nor2_2
*I *1211:C I *D sky130_fd_sc_hd__and3b_2
*I *1114:A1 I *D sky130_fd_sc_hd__a41o_2
*I *1213:B I *D sky130_fd_sc_hd__nand2_2
*I *1216:C1 I *D sky130_fd_sc_hd__o211a_2
*I *1092:X O *D sky130_fd_sc_hd__xor2_2
*CAP
1 *1095:B 0
2 *1093:A 3.30941e-05
3 *1094:B 0
4 *1211:C 0
5 *1114:A1 0.000139776
6 *1213:B 2.00578e-05
7 *1216:C1 0.000360896
8 *1092:X 9.94335e-05
9 *189:93 0.000126544
10 *189:85 0.000150928
11 *189:76 0.000394091
12 *189:70 0.000423402
13 *189:44 0.000550814
14 *189:40 0.000531775
15 *189:34 0.000285666
16 *189:30 0.0017994
17 *189:12 0.0018147
18 *1093:A *197:38 4.17736e-05
19 *1114:A1 *318:8 9.76261e-05
20 *1213:B *1095:A 0
21 *1216:C1 *1216:A2 2.81066e-05
22 *1216:C1 *1216:B1 1.17315e-05
23 *1216:C1 *280:14 0.000128527
24 *1216:C1 *283:14 5.50049e-05
25 *1216:C1 *283:24 0
26 *1216:C1 *299:65 0.000387034
27 *1216:C1 *556:39 9.75895e-05
28 *1216:C1 *556:45 1.36718e-05
29 *189:12 *1092:B 4.83893e-05
30 *189:12 *1465:SET_B 4.30894e-05
31 *189:12 *587:16 1.81615e-05
32 *189:30 *1299:A_N 0.000249264
33 *189:30 *1299:C 1.32314e-05
34 *189:30 *1353:B 0.000208288
35 *189:30 *1422:D 0.000231205
36 *189:30 *198:14 6.57815e-06
37 *189:30 *198:22 0.000446787
38 *189:30 *346:29 2.92235e-05
39 *189:30 *355:10 9.84851e-05
40 *189:30 *516:58 0.00018418
41 *189:30 *522:27 0.00137411
42 *189:30 *608:59 2.15106e-05
43 *189:30 *611:35 0
44 *189:34 *378:8 5.26431e-05
45 *189:34 *556:27 1.01436e-05
46 *189:34 *557:71 6.33511e-05
47 *189:40 *1095:A 0.000308952
48 *189:40 *378:8 2.96154e-05
49 *189:40 *557:71 2.96154e-05
50 *189:44 *1095:A 5.3304e-05
51 *189:44 *1213:A 4.5051e-05
52 *189:44 *280:14 2.25809e-05
53 *189:70 *1326:A 0.000166522
54 *189:70 *190:8 1.22803e-05
55 *189:70 *378:8 0
56 *189:70 *381:18 0.00037403
57 *189:70 *382:8 4.23714e-05
58 *189:76 *1257:B2 0.000122742
59 *189:76 *197:38 9.75779e-05
60 *189:76 *197:44 0.000308414
61 *189:76 *299:65 0.000159785
62 *189:76 *318:8 5.41288e-05
63 *189:93 *197:61 7.19915e-05
64 *189:93 *198:56 1.69977e-05
65 *189:93 *278:12 3.32677e-05
66 *189:93 *558:72 6.07611e-06
67 *189:93 *558:81 7.44778e-05
68 *57:12 *189:12 0.000137651
69 *151:72 *189:30 0.000254111
*RES
1 *1092:X *189:12 48.2475 
2 *189:12 *189:30 43.6758 
3 *189:30 *189:34 16.9057 
4 *189:34 *189:40 19.3293 
5 *189:40 *189:44 3.02429 
6 *189:44 *1216:C1 31.3064 
7 *189:44 *1213:B 23.4971 
8 *189:40 *189:70 35.075 
9 *189:70 *189:76 6.50429 
10 *189:76 *1114:A1 25.5271 
11 *189:76 *189:85 0.497143 
12 *189:85 *189:93 32.6411 
13 *189:93 *1211:C 23 
14 *189:85 *1094:B 23 
15 *189:70 *1093:A 23.6214 
16 *189:34 *1095:B 38 
*END

*D_NET *190 0.00131354
*CONN
*I *1320:A0 I *D sky130_fd_sc_hd__mux2_1
*I *1256:A I *D sky130_fd_sc_hd__or2_2
*I *1093:Y O *D sky130_fd_sc_hd__inv_2
*CAP
1 *1320:A0 0.000110169
2 *1256:A 0.000167266
3 *1093:Y 6.23266e-05
4 *190:10 0.000277435
5 *190:8 6.23266e-05
6 *1256:A *1326:B 6.70361e-05
7 *1256:A *570:69 8.78363e-05
8 *1320:A0 *1326:B 2.02872e-05
9 *1320:A0 *212:20 9.84851e-05
10 *1320:A0 *376:6 2.93845e-05
11 *1320:A0 *570:69 0.000102313
12 *190:8 *1326:A 0.000113153
13 *190:8 *376:21 8.62783e-05
14 *190:8 *378:8 1.69668e-05
15 *189:70 *190:8 1.22803e-05
*RES
1 *1093:Y *190:8 39.9057 
2 *190:8 *190:10 15 
3 *190:10 *1256:A 26.0036 
4 *190:10 *1320:A0 26.0036 
*END

*D_NET *191 0.00664724
*CONN
*I *1116:B I *D sky130_fd_sc_hd__xnor2_2
*I *1098:C I *D sky130_fd_sc_hd__or4b_2
*I *1094:Y O *D sky130_fd_sc_hd__nor2_2
*CAP
1 *1116:B 0
2 *1098:C 0
3 *1094:Y 0.000260929
4 *191:30 0.00122032
5 *191:12 0.00125444
6 *191:8 0.000295051
7 *191:8 *1222:B1 9.07398e-05
8 *191:8 *200:73 0
9 *191:8 *558:72 0.000104382
10 *191:8 *581:31 1.01436e-05
11 *191:30 *1098:B 3.00351e-05
12 *191:30 *200:73 9.83251e-05
13 *191:30 *211:24 4.96824e-05
14 *191:30 *350:10 0.000106697
15 *191:30 *507:8 3.87221e-06
16 *191:30 *581:18 2.82704e-05
17 *191:30 *616:32 0.00139476
18 *191:30 *620:30 0.00143344
19 *170:12 *191:8 3.78609e-05
20 *172:8 *191:30 0.000228291
*RES
1 *1094:Y *191:8 43.075 
2 *191:8 *191:12 15.6214 
3 *191:12 *191:30 42.0862 
4 *191:30 *1098:C 38 
5 *191:12 *1116:B 23 
*END

*D_NET *192 0.000762879
*CONN
*I *1135:A2 I *D sky130_fd_sc_hd__a21oi_2
*I *1320:A1 I *D sky130_fd_sc_hd__mux2_1
*I *1095:X O *D sky130_fd_sc_hd__or2_2
*CAP
1 *1135:A2 4.68285e-05
2 *1320:A1 4.73877e-05
3 *1095:X 7.89401e-05
4 *192:10 9.42162e-05
5 *192:8 7.89401e-05
6 *1135:A2 *1320:S 5.50049e-05
7 *1135:A2 *212:20 2.44795e-05
8 *1135:A2 *570:69 0.000153375
9 *1320:A1 *212:20 1.94812e-05
10 *1320:A1 *570:69 5.3304e-05
11 *192:8 *1422:D 0
12 *192:8 *557:71 0.000110922
*RES
1 *1095:X *192:8 39.5536 
2 *192:8 *192:10 15 
3 *192:10 *1320:A1 24.1186 
4 *192:10 *1135:A2 25.0714 
*END

*D_NET *193 0.00410996
*CONN
*I *1098:D_N I *D sky130_fd_sc_hd__or4b_2
*I *1096:X O *D sky130_fd_sc_hd__o22a_2
*CAP
1 *1098:D_N 0
2 *1096:X 0.000445147
3 *193:24 0.000856989
4 *193:8 0.00130214
5 *193:8 *1010:A 1.44895e-05
6 *193:8 *503:24 1.9405e-05
7 *193:8 *506:10 3.7473e-07
8 *193:8 *580:34 5.23105e-05
9 *193:8 *584:46 0
10 *193:8 *631:54 0
11 *193:24 *1280:B 1.02104e-05
12 *193:24 *257:30 0.000130177
13 *193:24 *258:18 3.24898e-05
14 *193:24 *261:28 0.00047363
15 *193:24 *472:50 0.000181433
16 *193:24 *580:44 1.30346e-05
17 *193:24 *614:28 0.000376748
18 *193:24 *631:67 1.02995e-05
19 *125:24 *193:8 6.32799e-05
20 *141:34 *193:8 0.000127807
*RES
1 *1096:X *193:8 44.6596 
2 *193:8 *193:24 35.8738 
3 *193:24 *1098:D_N 38 
*END

*D_NET *194 0.00271918
*CONN
*I *1098:B I *D sky130_fd_sc_hd__or4b_2
*I *1097:X O *D sky130_fd_sc_hd__a22o_2
*CAP
1 *1098:B 0.000430973
2 *1097:X 0.000560233
3 *194:24 0.000991206
4 *1098:B *449:22 8.14021e-05
5 *1098:B *456:212 1.13859e-05
6 *1098:B *580:44 2.32554e-05
7 *1098:B *596:55 0
8 *194:24 *1279:A 0
9 *194:24 *278:43 2.81181e-05
10 *194:24 *278:53 7.38543e-05
11 *194:24 *279:48 6.10551e-06
12 *194:24 *285:18 4.25892e-06
13 *194:24 *287:41 7.30104e-05
14 *194:24 *337:12 0
15 *194:24 *449:22 8.57325e-05
16 *194:24 *497:44 9.65021e-05
17 *1220:B1 *1098:B 1.58785e-05
18 *64:14 *1098:B 0.000204617
19 *123:10 *1098:B 2.61527e-06
20 *123:10 *194:24 0
21 *191:30 *1098:B 3.00351e-05
*RES
1 *1097:X *194:24 46.3479 
2 *194:24 *1098:B 44.3075 
*END

*D_NET *195 0.000746151
*CONN
*I *1115:A I *D sky130_fd_sc_hd__nor2_2
*I *1098:X O *D sky130_fd_sc_hd__or4b_2
*CAP
1 *1115:A 0
2 *1098:X 0.00014663
3 *195:12 0.00014663
4 *195:12 *580:34 2.93335e-05
5 *195:12 *595:41 6.58415e-06
6 *195:12 *630:72 0.000265812
7 *142:32 *195:12 0
8 *188:8 *195:12 0.00015116
*RES
1 *1098:X *195:12 27.6193 
2 *195:12 *1115:A 23 
*END

*D_NET *196 0.002188
*CONN
*I *1511:A I *D sky130_fd_sc_hd__clkdlybuf4s25_1
*I *1099:X O *D sky130_fd_sc_hd__xor2_2
*CAP
1 *1511:A 9.91628e-05
2 *1099:X 0.000438967
3 *196:10 0.000538129
4 *1511:A *414:10 0
5 *1511:A *512:24 0.000191157
6 *1511:A *557:10 5.21127e-05
7 *196:10 *1357:B2 0.000178517
8 *196:10 *1358:C 1.76557e-05
9 *196:10 *512:24 0.000263127
10 *196:10 *554:14 0.000409172
*RES
1 *1099:X *196:10 48.1707 
2 *196:10 *1511:A 40.61 
*END

*D_NET *197 0.0170381
*CONN
*I *1347:B I *D sky130_fd_sc_hd__xnor2_2
*I *1117:B I *D sky130_fd_sc_hd__nand2_2
*I *1257:A3 I *D sky130_fd_sc_hd__a32o_2
*I *1228:B I *D sky130_fd_sc_hd__nand2_2
*I *1211:B I *D sky130_fd_sc_hd__and3b_2
*I *1222:B1 I *D sky130_fd_sc_hd__a31o_2
*I *1100:Y O *D sky130_fd_sc_hd__xnor2_2
*CAP
1 *1347:B 0
2 *1117:B 0.000146634
3 *1257:A3 0
4 *1228:B 0
5 *1211:B 5.2089e-05
6 *1222:B1 0.000167851
7 *1100:Y 0
8 *197:111 0.000376912
9 *197:76 0.000237472
10 *197:61 0.000558127
11 *197:44 0.000677526
12 *197:38 0.00087863
13 *197:28 0.00149561
14 *197:26 0.0024431
15 *197:10 0.00211877
16 *197:4 0.000764037
17 *1117:B *1316:A 5.01186e-05
18 *1117:B *213:38 2.87337e-05
19 *1117:B *231:14 7.51453e-06
20 *1117:B *371:18 7.54223e-05
21 *1117:B *586:25 4.95487e-06
22 *1211:B *198:56 5.67058e-05
23 *1211:B *198:67 0
24 *1222:B1 *558:68 9.84851e-05
25 *1222:B1 *621:74 7.76284e-05
26 *197:10 *1146:B 9.7937e-05
27 *197:10 *240:17 0.000194713
28 *197:10 *240:21 0.000301841
29 *197:10 *241:10 0
30 *197:10 *244:29 0.000160625
31 *197:26 *1136:A1 0.00018304
32 *197:26 *231:14 7.55211e-05
33 *197:26 *232:10 0.000114974
34 *197:26 *448:30 2.05386e-05
35 *197:26 *448:41 1.75156e-05
36 *197:26 *485:8 9.67842e-05
37 *197:26 *545:10 1.17773e-05
38 *197:26 *609:41 4.60157e-05
39 *197:26 *610:51 7.43748e-05
40 *197:26 *610:70 7.66307e-05
41 *197:28 *409:18 0
42 *197:28 *624:75 0.00106766
43 *197:38 *1326:A 4.62917e-05
44 *197:38 *376:21 4.67227e-05
45 *197:38 *624:75 0.00081856
46 *197:61 *198:56 8.52481e-05
47 *197:61 *299:65 0.000239243
48 *197:61 *558:72 0
49 *197:61 *558:81 0
50 *197:61 *570:69 5.50049e-05
51 *197:61 *621:74 1.85275e-05
52 *197:76 *1214:A 6.08751e-05
53 *197:76 *198:41 0
54 *197:76 *283:14 4.45778e-05
55 *197:76 *299:65 4.99753e-06
56 *197:76 *558:81 8.32157e-05
57 *197:76 *570:55 0.000275022
58 *197:111 *1099:B 7.75329e-06
59 *197:111 *1146:B 0
60 *197:111 *483:45 6.84254e-05
61 *197:111 *512:24 9.67842e-05
62 *197:111 *512:30 1.58805e-05
63 *197:111 *576:14 1.83667e-05
64 *197:111 *587:16 0.000124455
65 *197:111 *606:64 7.45744e-05
66 *1074:A2 *1222:B1 2.18409e-05
67 *1074:C1 *1222:B1 5.50106e-05
68 *1093:A *197:38 4.17736e-05
69 *1117:A *1117:B 1.05658e-05
70 *1464:D *197:26 1.94812e-05
71 *56:10 *197:10 0.000128492
72 *58:6 *197:26 0.00042862
73 *121:14 *197:38 7.73109e-05
74 *121:37 *197:28 0.000101048
75 *121:37 *197:38 2.11377e-05
76 *121:45 *197:26 0.000489396
77 *170:12 *1222:B1 3.39192e-05
78 *189:76 *197:38 9.75779e-05
79 *189:76 *197:44 0.000308414
80 *189:93 *197:61 7.19915e-05
81 *191:8 *1222:B1 9.07398e-05
*RES
1 *1100:Y *197:4 23 
2 *197:4 *197:10 38.5964 
3 *197:10 *197:26 49.8768 
4 *197:26 *197:28 2.1168 
5 *197:28 *197:38 27.3255 
6 *197:38 *197:44 19.4536 
7 *197:44 *1222:B1 42.06 
8 *197:44 *197:61 20.1164 
9 *197:61 *1211:B 24.1186 
10 *197:61 *197:76 35.075 
11 *197:76 *1228:B 23 
12 *197:38 *1257:A3 23 
13 *197:28 *1117:B 48.8896 
14 *197:4 *197:111 36.67 
15 *197:111 *1347:B 23 
*END

*D_NET *198 0.0143043
*CONN
*I *1102:B I *D sky130_fd_sc_hd__nand2_2
*I *1216:B1 I *D sky130_fd_sc_hd__o211a_2
*I *1114:A3 I *D sky130_fd_sc_hd__a41o_2
*I *1215:B1 I *D sky130_fd_sc_hd__o21a_2
*I *1210:B I *D sky130_fd_sc_hd__nor2_2
*I *1214:C I *D sky130_fd_sc_hd__nand4_2
*I *1101:X O *D sky130_fd_sc_hd__xor2_2
*CAP
1 *1102:B 0
2 *1216:B1 8.67049e-05
3 *1114:A3 0.000224602
4 *1215:B1 0.00011408
5 *1210:B 0
6 *1214:C 0.000181306
7 *1101:X 0.000225109
8 *198:67 0.000334789
9 *198:56 0.0005163
10 *198:41 0.000589745
11 *198:28 0.000638619
12 *198:22 0.00056488
13 *198:14 0.00262389
14 *198:8 0.00253043
15 *1114:A3 *1222:A2 2.49781e-05
16 *1114:A3 *200:145 1.01436e-05
17 *1114:A3 *318:14 0.000213679
18 *1114:A3 *471:52 4.38753e-05
19 *1114:A3 *556:66 0.000162169
20 *1214:C *1214:A 5.50106e-05
21 *1214:C *1214:B 0.000136079
22 *1214:C *1214:D 3.04642e-05
23 *1214:C *1228:A 5.50049e-05
24 *1214:C *293:10 0.00035673
25 *1214:C *570:55 2.61526e-05
26 *1215:B1 *1215:A2 4.67488e-05
27 *1215:B1 *200:145 5.50106e-05
28 *1215:B1 *278:12 8.48502e-06
29 *1215:B1 *556:58 1.24376e-05
30 *1215:B1 *556:60 5.3304e-05
31 *1216:B1 *1216:A2 1.09903e-05
32 *1216:B1 *200:145 0.000162499
33 *1216:B1 *318:14 0.000174865
34 *198:8 *1101:B 0
35 *198:8 *483:68 0
36 *198:8 *576:26 1.62015e-05
37 *198:8 *576:37 4.4625e-05
38 *198:14 *1100:B 7.88926e-05
39 *198:14 *1299:B_N 7.44161e-06
40 *198:14 *1299:C 1.40958e-05
41 *198:14 *1419:CLK 1.89178e-05
42 *198:14 *235:18 0.000640412
43 *198:14 *448:6 4.67488e-05
44 *198:14 *448:17 4.67488e-05
45 *198:14 *484:6 2.93747e-05
46 *198:14 *516:58 0.000490193
47 *198:14 *601:68 3.01205e-05
48 *198:22 *1102:A 5.3304e-05
49 *198:22 *1422:D 0.000231205
50 *198:22 *556:12 8.60475e-05
51 *198:22 *556:27 0.000135037
52 *198:22 *635:6 7.8257e-05
53 *198:22 *635:12 0.000141483
54 *198:28 *1228:A 0
55 *198:28 *1287:A1 1.14154e-05
56 *198:28 *1287:B1 0.000184402
57 *198:28 *199:6 9.45591e-05
58 *198:28 *199:14 3.35186e-05
59 *198:28 *556:27 4.04206e-05
60 *198:28 *556:29 5.60174e-05
61 *198:41 *318:14 0
62 *198:41 *556:37 6.08751e-05
63 *198:41 *596:85 9.10209e-05
64 *198:56 *1256:B 0.000177227
65 *198:56 *277:8 4.9808e-05
66 *198:56 *278:12 6.12854e-05
67 *198:56 *556:58 8.17328e-05
68 *198:56 *570:69 6.08617e-05
69 *198:56 *596:85 0.000218962
70 *1211:B *198:56 5.67058e-05
71 *1211:B *198:67 0
72 *1216:C1 *1216:B1 1.17315e-05
73 *189:30 *198:14 6.57815e-06
74 *189:30 *198:22 0.000446787
75 *189:93 *198:56 1.69977e-05
76 *197:61 *198:56 8.52481e-05
77 *197:76 *198:41 0
*RES
1 *1101:X *198:8 40.61 
2 *198:8 *198:14 46.8379 
3 *198:14 *198:22 10.8129 
4 *198:22 *198:28 6.02786 
5 *198:28 *1214:C 28.8829 
6 *198:28 *198:41 17.9621 
7 *198:41 *1210:B 38 
8 *198:41 *198:56 23.4929 
9 *198:56 *1215:B1 25.0507 
10 *198:56 *198:67 15.4971 
11 *198:67 *1114:A3 42.9093 
12 *198:67 *1216:B1 40.755 
13 *198:22 *1102:B 23 
*END

*D_NET *199 0.000957463
*CONN
*I *1287:A1 I *D sky130_fd_sc_hd__o21ai_2
*I *1286:A1 I *D sky130_fd_sc_hd__o21a_2
*I *1102:Y O *D sky130_fd_sc_hd__nand2_2
*CAP
1 *1287:A1 2.9759e-05
2 *1286:A1 0
3 *1102:Y 9.02628e-05
4 *199:14 0.000155355
5 *199:6 0.000275376
6 *199:6 *343:10 5.67058e-05
7 *199:14 *1286:A2 0.000139404
8 *199:14 *1286:B1 1.98028e-05
9 *199:14 *343:10 4.55103e-05
10 *199:14 *381:18 0
11 *199:14 *611:25 5.79413e-06
12 *198:28 *1287:A1 1.14154e-05
13 *198:28 *199:6 9.45591e-05
14 *198:28 *199:14 3.35186e-05
*RES
1 *1102:Y *199:6 25.0507 
2 *199:6 *199:14 33.2314 
3 *199:14 *1286:A1 23 
4 *199:6 *1287:A1 23.4971 
*END

*D_NET *200 0.0240886
*CONN
*I *1214:D I *D sky130_fd_sc_hd__nand4_2
*I *1216:A2 I *D sky130_fd_sc_hd__o211a_2
*I *1357:A2_N I *D sky130_fd_sc_hd__o2bb2a_2
*I *1356:B1 I *D sky130_fd_sc_hd__o2bb2a_2
*I *1125:B I *D sky130_fd_sc_hd__or2_2
*I *1306:A2 I *D sky130_fd_sc_hd__a211o_2
*I *1222:A3 I *D sky130_fd_sc_hd__a31o_2
*I *1215:A2 I *D sky130_fd_sc_hd__o21a_2
*I *1114:A4 I *D sky130_fd_sc_hd__a41o_2
*I *1307:A2 I *D sky130_fd_sc_hd__a21oi_2
*I *1103:X O *D sky130_fd_sc_hd__xor2_2
*CAP
1 *1214:D 0.000189216
2 *1216:A2 6.7343e-05
3 *1357:A2_N 0.00015058
4 *1356:B1 3.17478e-05
5 *1125:B 0
6 *1306:A2 0
7 *1222:A3 0
8 *1215:A2 0.000329437
9 *1114:A4 0
10 *1307:A2 0
11 *1103:X 0
12 *200:145 0.00039719
13 *200:79 0.000475422
14 *200:73 0.00107209
15 *200:54 0.000820528
16 *200:50 0.000929747
17 *200:34 0.000988024
18 *200:30 0.000103416
19 *200:26 0.00119209
20 *200:14 0.00256413
21 *200:8 0.0015674
22 *200:4 0.000304104
23 *1214:D *1214:B 0
24 *1214:D *281:10 2.93747e-05
25 *1214:D *293:10 2.06822e-05
26 *1214:D *318:14 5.88166e-05
27 *1214:D *471:52 0.000123465
28 *1214:D *570:55 0.000177604
29 *1215:A2 *278:12 0.000107894
30 *1216:A2 *280:14 0.000107774
31 *1356:B1 *1159:A1 0.000185434
32 *1356:B1 *1356:A1_N 0.00014196
33 *1356:B1 *412:12 2.4754e-05
34 *1357:A2_N *1358:C 9.75779e-05
35 *1357:A2_N *512:24 7.77106e-05
36 *200:8 *1103:B 0
37 *200:8 *1356:A1_N 3.96403e-05
38 *200:8 *413:8 4.6318e-06
39 *200:8 *557:28 6.97069e-05
40 *200:14 *1166:A 1.41077e-05
41 *200:14 *1463:CLK 7.88926e-05
42 *200:14 *1464:SET_B 8.92585e-05
43 *200:14 *1570:A 0
44 *200:14 *240:55 0.000564588
45 *200:14 *244:56 9.5877e-05
46 *200:14 *405:20 0.000128153
47 *200:14 *405:32 3.52543e-06
48 *200:14 *482:8 0.000116188
49 *200:14 *526:10 0
50 *200:14 *557:28 0.000133657
51 *200:26 *1092:B 4.15526e-05
52 *200:26 *1148:A 1.58785e-05
53 *200:26 *1148:B 7.75329e-06
54 *200:26 *1466:RESET_B 2.11066e-05
55 *200:26 *240:55 3.5471e-05
56 *200:26 *242:16 0
57 *200:26 *243:27 3.47825e-05
58 *200:26 *243:44 6.80242e-05
59 *200:26 *351:10 7.62646e-05
60 *200:26 *485:21 9.45664e-05
61 *200:26 *557:28 0.00070368
62 *200:26 *557:32 0.000862508
63 *200:26 *558:127 9.28078e-06
64 *200:26 *560:92 0.000113673
65 *200:26 *602:73 9.45723e-05
66 *200:26 *624:75 0.00200338
67 *200:30 *1306:C1 5.50049e-05
68 *200:30 *233:8 4.34745e-05
69 *200:34 *1293:B 0.000139352
70 *200:34 *1306:B1 2.93104e-06
71 *200:34 *1306:C1 5.50106e-05
72 *200:34 *233:8 9.5877e-05
73 *200:34 *557:42 1.56665e-05
74 *200:34 *557:50 6.9805e-05
75 *200:50 *1293:B 4.21378e-05
76 *200:50 *1307:A1 9.41704e-05
77 *200:50 *350:22 0.000270142
78 *200:50 *350:32 8.49387e-06
79 *200:50 *362:38 0.000180544
80 *200:50 *364:32 0.000201202
81 *200:50 *481:70 7.56293e-06
82 *200:50 *557:50 9.5877e-05
83 *200:50 *558:53 0
84 *200:50 *590:33 2.36123e-05
85 *200:50 *594:40 2.03764e-06
86 *200:54 *615:63 5.64582e-05
87 *200:54 *634:10 5.85486e-05
88 *200:73 *1222:A2 3.55303e-05
89 *200:73 *350:10 2.05503e-05
90 *200:73 *371:18 0
91 *200:73 *581:31 0
92 *200:73 *581:67 8.30566e-06
93 *200:73 *612:54 0.00149582
94 *200:73 *615:63 3.39102e-05
95 *200:73 *616:53 0.000345796
96 *200:73 *617:73 0.000884596
97 *200:73 *634:10 0.000129007
98 *200:79 *211:8 2.26489e-05
99 *200:79 *288:6 0.000179311
100 *200:79 *289:10 0
101 *200:79 *349:20 4.75532e-05
102 *200:145 *318:14 1.50312e-05
103 *200:145 *471:52 0.000211053
104 *1074:A2 *200:79 6.08617e-05
105 *1074:C1 *200:79 9.67842e-05
106 *1114:A3 *200:145 1.01436e-05
107 *1214:C *1214:D 3.04642e-05
108 *1215:B1 *1215:A2 4.67488e-05
109 *1215:B1 *200:145 5.50106e-05
110 *1216:B1 *1216:A2 1.09903e-05
111 *1216:B1 *200:145 0.000162499
112 *1216:C1 *1216:A2 2.81066e-05
113 *121:45 *200:26 0
114 *164:24 *200:50 0.000193925
115 *172:8 *200:73 6.73456e-05
116 *175:20 *1215:A2 0
117 *175:20 *200:79 0
118 *179:66 *1215:A2 0.00016216
119 *179:66 *200:79 0.000262011
120 *191:8 *200:73 0
121 *191:30 *200:73 9.83251e-05
*RES
1 *1103:X *200:4 23 
2 *200:4 *200:8 17.61 
3 *200:8 *200:14 35.6314 
4 *200:14 *200:26 42.2529 
5 *200:26 *200:30 15.6214 
6 *200:30 *200:34 3.02429 
7 *200:34 *200:50 44.355 
8 *200:50 *200:54 15.8493 
9 *200:54 *1307:A2 38 
10 *200:54 *200:73 39.4617 
11 *200:73 *200:79 21.1936 
12 *200:79 *1114:A4 38 
13 *200:79 *1215:A2 41.8529 
14 *200:73 *1222:A3 23 
15 *200:34 *1306:A2 23 
16 *200:30 *1125:B 23 
17 *200:8 *1356:B1 40.0507 
18 *200:4 *1357:A2_N 25.6929 
19 *1215:A2 *200:145 41.5836 
20 *200:145 *1216:A2 39.595 
21 *200:145 *1214:D 42.4536 
*END

*D_NET *201 0.00446397
*CONN
*I *1108:A1 I *D sky130_fd_sc_hd__a22o_2
*I *1104:X O *D sky130_fd_sc_hd__or2_2
*CAP
1 *1108:A1 0.000649682
2 *1104:X 0.000700416
3 *201:14 0.0013501
4 *1108:A1 *1108:A2 1.46586e-05
5 *1108:A1 *204:24 0.000258208
6 *1108:A1 *205:10 0.000172185
7 *1108:A1 *286:10 0
8 *1108:A1 *309:10 0.000249287
9 *1108:A1 *449:190 0.000235266
10 *201:14 *1104:B 4.01356e-05
11 *201:14 *286:10 4.5745e-05
12 *201:14 *503:24 6.56284e-05
13 *201:14 *564:10 8.23408e-05
14 *201:14 *584:46 5.50049e-05
15 *71:10 *1108:A1 4.81724e-05
16 *76:10 *201:14 0.000309665
17 *125:24 *201:14 7.19394e-05
18 *173:10 *201:14 0.000115539
*RES
1 *1104:X *201:14 49.5689 
2 *201:14 *1108:A1 49.6518 
*END

*D_NET *202 0.00459733
*CONN
*I *1108:A2 I *D sky130_fd_sc_hd__a22o_2
*I *1105:Y O *D sky130_fd_sc_hd__nand2_2
*CAP
1 *1108:A2 6.39928e-06
2 *1105:Y 0.000340209
3 *202:22 0.00111084
4 *202:12 0.00144465
5 *1108:A2 *204:24 1.46586e-05
6 *202:12 *503:10 6.11123e-05
7 *202:12 *503:24 4.77164e-06
8 *202:22 *203:16 4.77164e-06
9 *202:22 *285:36 2.07355e-05
10 *202:22 *299:28 4.95081e-05
11 *202:22 *299:38 2.61014e-05
12 *202:22 *307:18 0.0003107
13 *202:22 *311:10 5.85486e-05
14 *202:22 *449:190 0.000124902
15 *202:22 *503:10 0
16 *202:22 *503:50 2.90821e-05
17 *202:22 *599:49 0.000237021
18 *202:22 *599:68 5.3304e-05
19 *1108:A1 *1108:A2 1.46586e-05
20 *179:14 *202:22 0.000685356
*RES
1 *1105:Y *202:12 41.9771 
2 *202:12 *202:22 48.2493 
3 *202:22 *1108:A2 38.1709 
*END

*D_NET *203 0.00371665
*CONN
*I *1108:B1 I *D sky130_fd_sc_hd__a22o_2
*I *1106:X O *D sky130_fd_sc_hd__or2_2
*CAP
1 *1108:B1 0
2 *1106:X 0.000418533
3 *203:16 0.000665202
4 *203:8 0.00108374
5 *203:8 *388:10 0.000431551
6 *203:8 *463:14 2.47815e-05
7 *203:16 *1452:CLK 1.24371e-05
8 *203:16 *1522:A 0.000102531
9 *203:16 *299:38 5.43589e-05
10 *203:16 *314:39 0.000123945
11 *203:16 *315:10 7.46386e-05
12 *203:16 *449:190 1.41172e-05
13 *203:16 *569:45 6.25646e-05
14 *203:16 *570:10 0.000305348
15 *72:16 *203:16 6.83176e-05
16 *117:10 *203:16 0.000225069
17 *176:14 *203:16 4.47524e-05
18 *202:22 *203:16 4.77164e-06
*RES
1 *1106:X *203:8 43.8621 
2 *203:8 *203:16 28.2364 
3 *203:16 *1108:B1 23 
*END

*D_NET *204 0.00517063
*CONN
*I *1108:B2 I *D sky130_fd_sc_hd__a22o_2
*I *1107:Y O *D sky130_fd_sc_hd__nand2_2
*CAP
1 *1108:B2 0
2 *1107:Y 0.000170135
3 *204:24 0.000955931
4 *204:10 0.00112607
5 *204:10 *457:49 0.000172488
6 *204:24 *1107:A 3.04913e-05
7 *204:24 *1107:B 0.000339922
8 *204:24 *205:10 4.91948e-05
9 *204:24 *299:20 0.000213031
10 *204:24 *299:38 3.22019e-05
11 *204:24 *309:10 0.000353064
12 *204:24 *310:10 1.98354e-05
13 *204:24 *310:35 6.07175e-05
14 *204:24 *388:10 0.000169981
15 *204:24 *389:10 8.04817e-05
16 *204:24 *502:34 0.000351786
17 *204:24 *567:41 0.000374325
18 *204:24 *569:45 0.000328326
19 *204:24 *574:41 1.0794e-05
20 uio_oe[6] *204:24 1.41227e-05
21 *1108:A1 *204:24 0.000258208
22 *1108:A2 *204:24 1.46586e-05
23 *141:18 *204:24 4.48735e-05
*RES
1 *1107:Y *204:10 40.5479 
2 *204:10 *204:24 37.8479 
3 *204:24 *1108:B2 23 
*END

*D_NET *205 0.00116132
*CONN
*I *1113:C1 I *D sky130_fd_sc_hd__a221o_2
*I *1108:X O *D sky130_fd_sc_hd__a22o_2
*CAP
1 *1113:C1 0
2 *1108:X 0.000313442
3 *205:10 0.000313442
4 *205:10 *1109:A 7.39993e-05
5 *205:10 *1109:B 5.3304e-05
6 *205:10 *1113:A1 5.3304e-05
7 *205:10 *569:45 3.4875e-05
8 *1108:A1 *205:10 0.000172185
9 *141:28 *205:10 9.75779e-05
10 *204:24 *205:10 4.91948e-05
*RES
1 *1108:X *205:10 29.4163 
2 *205:10 *1113:C1 23 
*END

*D_NET *206 0.000538629
*CONN
*I *1113:A1 I *D sky130_fd_sc_hd__a221o_2
*I *1109:X O *D sky130_fd_sc_hd__or2_2
*CAP
1 *1113:A1 0.000119697
2 *1109:X 0.000119697
3 *1113:A1 *1109:A 3.8243e-05
4 *1113:A1 *1113:B2 1.28818e-05
5 *1113:A1 *208:8 2.64616e-05
6 *1113:A1 *569:45 6.24251e-05
7 *1113:A1 *573:18 0.000105921
8 *205:10 *1113:A1 5.3304e-05
*RES
1 *1109:X *1113:A1 49.0243 
*END

*D_NET *207 0.00170943
*CONN
*I *1113:A2 I *D sky130_fd_sc_hd__a221o_2
*I *1110:Y O *D sky130_fd_sc_hd__nand2_2
*CAP
1 *1113:A2 7.6235e-06
2 *1110:Y 0.000155587
3 *207:22 0.000197154
4 *207:14 0.000345117
5 *1113:A2 *208:8 1.46586e-05
6 *1113:A2 *573:18 7.27694e-06
7 *207:14 *1279:A 2.20055e-05
8 *207:14 *280:62 5.99567e-06
9 *207:14 *285:26 5.79559e-05
10 *207:14 *337:12 3.41998e-06
11 *207:14 *497:44 3.41998e-06
12 *207:14 *621:72 5.56356e-05
13 *207:22 *1279:A 7.67422e-05
14 *207:22 *280:66 5.56279e-05
15 *207:22 *280:76 0.000299123
16 *207:22 *573:8 6.16519e-05
17 *207:22 *579:39 0.000310864
18 *207:22 *621:72 2.95753e-05
*RES
1 *1110:Y *207:14 40.5893 
2 *207:14 *207:22 35.7379 
3 *207:22 *1113:A2 38.1709 
*END

*D_NET *208 0.000873864
*CONN
*I *1113:B1 I *D sky130_fd_sc_hd__a221o_2
*I *1111:Y O *D sky130_fd_sc_hd__nand2_2
*CAP
1 *1113:B1 0
2 *1111:Y 0.000174725
3 *208:8 0.000174725
4 *208:8 *1109:A 0.000307349
5 *208:8 *1111:A 1.73186e-05
6 *208:8 *1111:B 9.77405e-05
7 *208:8 *210:12 1.14876e-05
8 *208:8 *573:18 4.93974e-05
9 *1113:A1 *208:8 2.64616e-05
10 *1113:A2 *208:8 1.46586e-05
*RES
1 *1111:Y *208:8 27.6814 
2 *208:8 *1113:B1 23 
*END

*D_NET *209 0.00212879
*CONN
*I *1113:B2 I *D sky130_fd_sc_hd__a221o_2
*I *1112:X O *D sky130_fd_sc_hd__or2_2
*CAP
1 *1113:B2 4.02164e-06
2 *1112:X 0.000744843
3 *209:10 0.000748865
4 *1113:B2 *1109:A 7.80291e-06
5 *209:10 *1112:A 5.25937e-05
6 *209:10 *1112:B 2.79662e-05
7 *209:10 *299:20 0.000177848
8 *209:10 *306:32 1.75524e-05
9 *209:10 *569:45 5.50049e-05
10 *209:10 *573:18 0.000109374
11 *1113:A1 *1113:B2 1.28818e-05
12 *1451:D *209:10 4.9054e-06
13 *173:18 *209:10 4.36547e-05
14 *173:66 *209:10 0.00012148
*RES
1 *1112:X *209:10 48.0257 
2 *209:10 *1113:B2 38.1502 
*END

*D_NET *210 0.00553624
*CONN
*I *1114:B1 I *D sky130_fd_sc_hd__a41o_2
*I *1113:X O *D sky130_fd_sc_hd__a221o_2
*CAP
1 *1114:B1 0
2 *1113:X 0.000631032
3 *210:24 0.00119421
4 *210:12 0.00182524
5 *210:12 *1109:A 3.58084e-06
6 *210:12 *1111:A 2.93431e-05
7 *210:12 *1111:B 3.05357e-05
8 *210:12 *280:62 4.71324e-05
9 *210:12 *294:16 9.67842e-05
10 *210:12 *499:14 2.4754e-05
11 *210:12 *499:20 8.56245e-05
12 *210:12 *573:18 1.3523e-05
13 *210:24 *1230:B 4.57037e-05
14 *210:24 *1232:B 5.50049e-05
15 *210:24 *1233:A1 9.41704e-05
16 *210:24 *1271:A1 0
17 *210:24 *259:24 0.000207853
18 *210:24 *279:10 9.41704e-05
19 *210:24 *289:14 0.000917647
20 *210:24 *292:27 0
21 *210:24 *294:22 1.17256e-05
22 *210:24 *298:8 1.50741e-05
23 *210:24 *499:10 6.16439e-05
24 *210:24 *578:56 2.05503e-05
25 *210:24 *621:72 1.94463e-05
26 *208:8 *210:12 1.14876e-05
*RES
1 *1113:X *210:12 47.3629 
2 *210:12 *210:24 35.0721 
3 *210:24 *1114:B1 23 
*END

*D_NET *211 0.00592061
*CONN
*I *1115:B I *D sky130_fd_sc_hd__nor2_2
*I *1114:X O *D sky130_fd_sc_hd__a41o_2
*CAP
1 *1115:B 0
2 *1114:X 0.000198287
3 *211:24 0.000849437
4 *211:8 0.00104772
5 *211:8 *289:10 8.62876e-05
6 *211:8 *349:20 0.000229822
7 *211:24 *1578:addr[1] 0.00133633
8 *211:24 *460:34 3.37649e-05
9 *211:24 *461:97 0.000316964
10 *211:24 *507:8 7.0261e-05
11 *211:24 *596:55 6.82841e-05
12 *211:24 *612:54 0.00134746
13 *211:24 *620:30 4.51815e-05
14 *64:30 *211:24 0.000110314
15 *175:8 *211:8 8.46655e-05
16 *175:20 *211:8 2.07444e-05
17 *185:10 *211:24 2.75733e-06
18 *191:30 *211:24 4.96824e-05
19 *200:79 *211:8 2.26489e-05
*RES
1 *1114:X *211:8 42.5468 
2 *211:8 *211:24 37.2352 
3 *211:24 *1115:B 38 
*END

*D_NET *212 0.00619174
*CONN
*I *1121:A I *D sky130_fd_sc_hd__and3_2
*I *1288:A_N I *D sky130_fd_sc_hd__and2b_2
*I *1134:B I *D sky130_fd_sc_hd__and3_2
*I *1116:Y O *D sky130_fd_sc_hd__xnor2_2
*CAP
1 *1121:A 0.000265736
2 *1288:A_N 0.000270699
3 *1134:B 9.6997e-05
4 *1116:Y 0.000587659
5 *212:33 0.000563935
6 *212:20 0.000441989
7 *212:10 0.000905152
8 *1121:A *1353:A 7.87243e-05
9 *1121:A *1422:D 0
10 *1121:A *214:18 0
11 *1121:A *215:25 0
12 *1121:A *516:72 9.28078e-06
13 *1121:A *634:10 0
14 *1134:B *231:10 0
15 *1134:B *570:69 5.56279e-05
16 *1134:B *634:10 0
17 *1288:A_N *1120:B 0.000142634
18 *1288:A_N *1288:B 9.67842e-05
19 *1288:A_N *213:51 1.59071e-05
20 *1288:A_N *213:72 1.12508e-05
21 *1288:A_N *214:6 5.79559e-05
22 *1288:A_N *214:10 0.00017266
23 *1288:A_N *214:18 0
24 *1288:A_N *215:10 4.17736e-05
25 *1288:A_N *231:14 0.000161677
26 *1288:A_N *585:51 0.000133653
27 *212:10 *376:21 9.24887e-05
28 *212:10 *377:8 0.000353617
29 *212:10 *378:8 0.000142572
30 *212:10 *557:71 7.75329e-06
31 *212:10 *581:46 4.9662e-05
32 *212:10 *585:45 0.000161171
33 *212:10 *621:93 5.60174e-05
34 *212:20 *1135:B1 0.000186606
35 *212:20 *1320:S 2.93747e-05
36 *212:20 *570:69 8.87647e-05
37 *212:20 *581:54 5.50106e-05
38 *212:20 *585:45 0.000428114
39 *212:20 *585:64 6.17437e-06
40 *212:20 *586:25 0.000137368
41 *1135:A2 *212:20 2.44795e-05
42 *1320:A0 *212:20 9.84851e-05
43 *1320:A1 *212:20 1.94812e-05
44 *47:6 *1121:A 0.000144501
*RES
1 *1116:Y *212:10 49.1443 
2 *212:10 *212:20 38.8864 
3 *212:20 *1134:B 39.8229 
4 *212:20 *212:33 0.621429 
5 *212:33 *1288:A_N 45.2086 
6 *212:33 *1121:A 43.2407 
*END

*D_NET *213 0.00369883
*CONN
*I *1134:C I *D sky130_fd_sc_hd__and3_2
*I *1118:B I *D sky130_fd_sc_hd__nand2_2
*I *1119:B I *D sky130_fd_sc_hd__or2_2
*I *1317:A I *D sky130_fd_sc_hd__nand2_2
*I *1316:A I *D sky130_fd_sc_hd__or2_2
*I *1117:Y O *D sky130_fd_sc_hd__nand2_2
*CAP
1 *1134:C 0
2 *1118:B 0.000126424
3 *1119:B 0
4 *1317:A 0
5 *1316:A 0.00014643
6 *1117:Y 0.000166983
7 *213:72 0.000103684
8 *213:51 0.000644932
9 *213:38 0.000237168
10 *213:30 0.000924845
11 *213:28 8.60365e-05
12 *1118:B *214:10 0
13 *1316:A *1316:B 5.16775e-05
14 *1316:A *371:18 2.74535e-05
15 *1316:A *372:8 9.65364e-05
16 *213:28 *231:14 2.64616e-05
17 *213:30 *214:10 0
18 *213:38 *231:14 6.82228e-06
19 *213:38 *371:18 0
20 *213:38 *586:25 0.000156627
21 *213:51 *1288:B 0.00021477
22 *213:51 *214:6 2.46906e-05
23 *213:51 *214:10 0.000190627
24 *213:51 *215:10 8.71791e-05
25 *213:51 *231:14 2.50717e-05
26 *213:51 *232:10 1.09111e-05
27 *213:51 *351:10 2.03902e-05
28 *213:51 *585:64 4.77164e-06
29 *213:72 *231:10 2.09612e-05
30 *213:72 *371:18 5.77119e-05
31 *213:72 *585:51 0.000133653
32 *1117:B *1316:A 5.01186e-05
33 *1117:B *213:38 2.87337e-05
34 *1288:A_N *213:51 1.59071e-05
35 *1288:A_N *213:72 1.12508e-05
*RES
1 *1117:Y *1316:A 49.4904 
2 *1117:Y *213:28 23.6214 
3 *213:28 *213:30 0.849286 
4 *213:30 *213:38 33.8321 
5 *213:38 *1317:A 23 
6 *213:30 *213:51 39.9221 
7 *213:51 *1119:B 23 
8 *213:28 *1118:B 23.4971 
9 *1118:B *213:72 40.2579 
10 *213:72 *1134:C 38 
*END

*D_NET *214 0.00217872
*CONN
*I *1120:A I *D sky130_fd_sc_hd__and2_2
*I *1288:B I *D sky130_fd_sc_hd__and2b_2
*I *1121:B I *D sky130_fd_sc_hd__and3_2
*I *1118:Y O *D sky130_fd_sc_hd__nand2_2
*CAP
1 *1120:A 0
2 *1288:B 4.50221e-05
3 *1121:B 0
4 *1118:Y 8.95518e-06
5 *214:18 0.000347661
6 *214:10 0.000454763
7 *214:6 7.10351e-05
8 *1288:B *215:10 0.000115857
9 *214:18 *1353:A 2.93335e-05
10 *214:18 *215:25 0.000331991
11 *1118:B *214:10 0
12 *1121:A *214:18 0
13 *1288:A_N *1288:B 9.67842e-05
14 *1288:A_N *214:6 5.79559e-05
15 *1288:A_N *214:10 0.00017266
16 *1288:A_N *214:18 0
17 *121:37 *214:18 1.66113e-05
18 *213:30 *214:10 0
19 *213:51 *1288:B 0.00021477
20 *213:51 *214:6 2.46906e-05
21 *213:51 *214:10 0.000190627
*RES
1 *1118:Y *214:6 23.6214 
2 *214:6 *214:10 2.54786 
3 *214:10 *214:18 36.0486 
4 *214:18 *1121:B 23 
5 *214:10 *1288:B 25.5271 
6 *214:6 *1120:A 23 
*END

*D_NET *215 0.00271698
*CONN
*I *1121:C I *D sky130_fd_sc_hd__and3_2
*I *1120:B I *D sky130_fd_sc_hd__and2_2
*I *1119:X O *D sky130_fd_sc_hd__or2_2
*CAP
1 *1121:C 0
2 *1120:B 3.5386e-05
3 *1119:X 0.000206463
4 *215:25 0.000333286
5 *215:10 0.000575135
6 *1120:B *231:14 0.000140927
7 *215:10 *231:14 0.000330046
8 *215:10 *232:10 5.50106e-05
9 *215:25 *1353:A 5.40876e-05
10 *215:25 *216:10 3.34818e-06
11 *215:25 *351:10 0
12 *1121:A *215:25 0
13 *1288:A_N *1120:B 0.000142634
14 *1288:A_N *215:10 4.17736e-05
15 *1288:B *215:10 0.000115857
16 *47:6 *215:25 9.91024e-05
17 *121:37 *215:25 0.000164756
18 *213:51 *215:10 8.71791e-05
19 *214:18 *215:25 0.000331991
*RES
1 *1119:X *215:10 29.5043 
2 *215:10 *1120:B 24.5743 
3 *215:10 *215:25 37.2293 
4 *215:25 *1121:C 23 
*END

*D_NET *216 0.00105125
*CONN
*I *1289:B1_N I *D sky130_fd_sc_hd__o21ba_2
*I *1120:X O *D sky130_fd_sc_hd__and2_2
*CAP
1 *1289:B1_N 3.49026e-05
2 *1120:X 0.000247404
3 *216:10 0.000282306
4 *1289:B1_N *1289:A1 0.00010478
5 *1289:B1_N *345:6 6.63461e-05
6 *1289:B1_N *570:69 1.93623e-05
7 *216:10 *231:14 0.000180218
8 *216:10 *351:10 6.08751e-05
9 *121:37 *216:10 5.17122e-05
10 *215:25 *216:10 3.34818e-06
*RES
1 *1120:X *216:10 41.9564 
2 *216:10 *1289:B1_N 39.1911 
*END

*D_NET *217 0.00295562
*CONN
*I *1290:A0 I *D sky130_fd_sc_hd__mux2_1
*I *1122:A I *D sky130_fd_sc_hd__inv_2
*I *1121:X O *D sky130_fd_sc_hd__and3_2
*CAP
1 *1290:A0 0
2 *1122:A 0.000385707
3 *1121:X 0.00031499
4 *217:10 0.000700697
5 *1122:A *1136:A1 1.59071e-05
6 *1122:A *231:14 0.000302535
7 *1122:A *232:10 0.00014411
8 *1122:A *609:41 7.03766e-05
9 *217:10 *1353:A 0.00052371
10 *217:10 *232:10 0.000175071
11 *217:10 *346:14 5.50049e-05
12 *217:10 *352:8 0.000180212
13 *217:10 *609:41 8.72992e-05
*RES
1 *1121:X *217:10 46.4721 
2 *217:10 *1122:A 44.7114 
3 *217:10 *1290:A0 38 
*END

*D_NET *218 0.00160514
*CONN
*I *1139:A3 I *D sky130_fd_sc_hd__o41a_2
*I *1136:A1 I *D sky130_fd_sc_hd__o21ai_2
*I *1122:Y O *D sky130_fd_sc_hd__inv_2
*CAP
1 *1139:A3 0.000197569
2 *1136:A1 7.2246e-05
3 *1122:Y 0.000199313
4 *218:20 0.000324636
5 *1136:A1 *231:14 4.96303e-05
6 *1139:A3 *1124:B 3.17634e-05
7 *1139:A3 *1139:B1 4.9662e-05
8 *1139:A3 *219:6 2.43944e-05
9 *1139:A3 *235:10 0.00014196
10 *1139:A3 *570:69 9.41704e-05
11 *218:20 *1123:B 3.74475e-05
12 *218:20 *545:10 0.000183398
13 *218:20 *609:41 0
14 *1122:A *1136:A1 1.59071e-05
15 *197:26 *1136:A1 0.00018304
*RES
1 *1122:Y *1136:A1 48.0507 
2 *1122:Y *218:20 40.61 
3 *218:20 *1139:A3 41.9564 
*END

*D_NET *219 0.00238053
*CONN
*I *1124:B I *D sky130_fd_sc_hd__nand2_2
*I *1137:A2 I *D sky130_fd_sc_hd__a21oi_2
*I *1123:Y O *D sky130_fd_sc_hd__nor2_2
*CAP
1 *1124:B 0.000162584
2 *1137:A2 0
3 *1123:Y 7.38099e-05
4 *219:12 0.000253999
5 *219:6 0.000490393
6 *1124:B *1139:B1 0.000138444
7 *1124:B *220:10 4.67488e-05
8 *1124:B *588:77 4.08664e-05
9 *219:6 *570:69 2.64616e-05
10 *219:6 *588:77 0.000135037
11 *219:12 *234:8 6.00862e-06
12 *219:12 *478:28 0.000361321
13 *219:12 *588:77 0.00026967
14 *1124:A *1124:B 1.4345e-05
15 *1137:A1 *219:12 2.81411e-05
16 *1139:A3 *1124:B 3.17634e-05
17 *1139:A3 *219:6 2.43944e-05
18 *121:62 *1124:B 0.000266157
19 *181:6 *1124:B 1.03836e-05
*RES
1 *1123:Y *219:6 24.5743 
2 *219:6 *219:12 35.4271 
3 *219:12 *1137:A2 23 
4 *219:6 *1124:B 27.4536 
*END

*D_NET *220 0.00246471
*CONN
*I *1133:B1 I *D sky130_fd_sc_hd__o31ai_2
*I *1124:Y O *D sky130_fd_sc_hd__nand2_2
*CAP
1 *1133:B1 0.000137351
2 *1124:Y 0.000441747
3 *220:10 0.000579098
4 *1133:B1 *1133:A3 0.000141164
5 *1133:B1 *233:6 9.84851e-05
6 *1133:B1 *233:8 5.3304e-05
7 *1133:B1 *560:92 5.50049e-05
8 *220:10 *1139:B1 3.54739e-05
9 *220:10 *234:8 3.82322e-05
10 *220:10 *448:17 1.02029e-05
11 *220:10 *560:92 4.30894e-05
12 *220:10 *607:49 1.2597e-05
13 *220:10 *610:70 7.05055e-05
14 *1124:B *220:10 4.67488e-05
15 *121:62 *220:10 2.25927e-05
16 *121:79 *220:10 5.25848e-05
17 *156:18 *220:10 0.000361053
18 *181:6 *220:10 0.000265472
*RES
1 *1124:Y *220:10 47.4871 
2 *220:10 *1133:B1 41.48 
*END

*D_NET *221 0.00195466
*CONN
*I *1127:B I *D sky130_fd_sc_hd__or2_2
*I *1126:B I *D sky130_fd_sc_hd__and2_2
*I *1309:S I *D sky130_fd_sc_hd__mux2_1
*I *1125:X O *D sky130_fd_sc_hd__or2_2
*CAP
1 *1127:B 2.79027e-05
2 *1126:B 0
3 *1309:S 0
4 *1125:X 0.000301494
5 *221:20 0.000210575
6 *221:12 0.000227088
7 *221:10 4.44165e-05
8 *221:8 0.000301494
9 *1127:B *1127:A 8.43466e-05
10 *1127:B *594:52 9.5877e-05
11 *221:8 *222:10 4.41337e-05
12 *221:8 *223:8 0
13 *221:8 *558:127 0.000126433
14 *221:8 *558:138 5.79489e-05
15 *221:8 *594:52 5.79427e-05
16 *221:8 *609:41 0
17 *221:12 *1127:A 8.6949e-05
18 *221:12 *558:30 1.72202e-05
19 *221:12 *558:32 7.53384e-06
20 *221:12 *594:52 5.50049e-05
21 *221:20 *1127:A 5.50106e-05
22 *221:20 *370:10 5.80693e-05
23 *221:20 *558:32 2.93845e-05
24 *221:20 *558:138 0
25 *221:20 *589:35 6.58396e-05
*RES
1 *1125:X *221:8 43.4271 
2 *221:8 *221:10 15 
3 *221:10 *221:12 1.09786 
4 *221:12 *221:20 33.5836 
5 *221:20 *1309:S 23 
6 *221:12 *1126:B 23 
7 *221:10 *1127:B 24.0979 
*END

*D_NET *222 0.00153764
*CONN
*I *1133:A1 I *D sky130_fd_sc_hd__o31ai_2
*I *1128:A_N I *D sky130_fd_sc_hd__and2b_2
*I *1126:X O *D sky130_fd_sc_hd__and2_2
*CAP
1 *1133:A1 0
2 *1128:A_N 0
3 *1126:X 0.000253128
4 *222:25 0.000128682
5 *222:12 0.000128682
6 *222:10 0.000253128
7 *222:10 *223:8 1.2597e-05
8 *222:10 *558:28 9.84851e-05
9 *222:10 *558:30 5.3304e-05
10 *222:10 *609:41 0.00011933
11 *222:25 *348:22 5.88619e-05
12 *222:25 *588:54 0.000229155
13 *222:25 *609:41 0.000158155
14 *221:8 *222:10 4.41337e-05
*RES
1 *1126:X *222:10 42.1843 
2 *222:10 *222:12 15 
3 *222:12 *1128:A_N 23 
4 *222:12 *222:25 33.3557 
5 *222:25 *1133:A1 23 
*END

*D_NET *223 0.00312921
*CONN
*I *1128:B I *D sky130_fd_sc_hd__and2b_2
*I *1295:A1 I *D sky130_fd_sc_hd__a211o_2
*I *1293:A I *D sky130_fd_sc_hd__nor2_2
*I *1127:X O *D sky130_fd_sc_hd__or2_2
*CAP
1 *1128:B 0
2 *1295:A1 1.94647e-05
3 *1293:A 0
4 *1127:X 0.000140705
5 *223:26 0.000478984
6 *223:14 0.00079354
7 *223:10 0.000295091
8 *223:8 0.000140705
9 *1295:A1 *348:22 1.75562e-05
10 *223:8 *609:41 1.91026e-05
11 *223:8 *610:51 0
12 *223:14 *348:22 0.000397506
13 *223:14 *350:32 2.80512e-05
14 *223:14 *351:8 1.24376e-05
15 *223:26 *350:32 0.000233133
16 *223:26 *351:8 6.9805e-05
17 *223:26 *364:10 0.000141738
18 *223:26 *371:18 0.000175781
19 *223:26 *586:25 0
20 *223:26 *588:54 0.000153013
21 *223:26 *634:10 0
22 *221:8 *223:8 0
23 *222:10 *223:8 1.2597e-05
*RES
1 *1127:X *223:8 39.9057 
2 *223:8 *223:10 15 
3 *223:10 *223:14 5.88286 
4 *223:14 *223:26 40.0671 
5 *223:26 *1293:A 23 
6 *223:14 *1295:A1 23.4971 
7 *223:10 *1128:B 23 
*END

*D_NET *224 0.00287768
*CONN
*I *1131:A I *D sky130_fd_sc_hd__and3_2
*I *1291:B1 I *D sky130_fd_sc_hd__a21oi_2
*I *1138:C I *D sky130_fd_sc_hd__nand4_2
*I *1128:X O *D sky130_fd_sc_hd__and2b_2
*CAP
1 *1131:A 0
2 *1291:B1 0.000154975
3 *1138:C 0
4 *1128:X 0.000365653
5 *224:40 0.000141279
6 *224:19 0.000732689
7 *224:12 3.4248e-05
8 *224:6 0.000836336
9 *1291:B1 *1291:A2 2.4754e-05
10 *1291:B1 *225:18 0.000168006
11 *1291:B1 *347:14 5.50106e-05
12 *224:12 *233:34 2.5597e-05
13 *224:12 *234:8 5.95172e-05
14 *224:19 *1291:A2 1.41077e-05
15 *224:40 *1131:C 1.00493e-05
16 *224:40 *225:26 7.68979e-05
17 *224:40 *560:70 2.02872e-05
18 *224:40 *560:74 2.34279e-05
19 *224:40 *560:109 7.89973e-05
20 *1138:B *224:19 2.93845e-05
21 *160:60 *224:19 2.64616e-05
*RES
1 *1128:X *224:6 27.4329 
2 *224:6 *224:12 30.8493 
3 *224:12 *1138:C 23 
4 *224:6 *224:19 5.38571 
5 *224:19 *1291:B1 26.5214 
6 *224:19 *224:40 32.32 
7 *224:40 *1131:A 23 
*END

*D_NET *225 0.00203975
*CONN
*I *1291:A1 I *D sky130_fd_sc_hd__a21oi_2
*I *1131:B I *D sky130_fd_sc_hd__and3_2
*I *1129:X O *D sky130_fd_sc_hd__or2_2
*CAP
1 *1291:A1 0
2 *1131:B 0
3 *1129:X 0.000136224
4 *225:26 0.000344419
5 *225:18 0.000542239
6 *225:10 0.000334045
7 *225:10 *226:8 0
8 *225:10 *368:6 2.93747e-05
9 *225:18 *1291:A2 9.84794e-05
10 *225:26 *1131:C 2.91013e-05
11 *225:26 *1132:A2 1.05887e-05
12 *225:26 *227:6 9.84851e-05
13 *225:26 *227:29 3.39192e-05
14 *225:26 *517:70 7.45306e-06
15 *225:26 *560:109 3.1414e-05
16 *1291:B1 *225:18 0.000168006
17 *121:79 *225:18 6.17437e-06
18 *151:58 *225:10 1.02029e-05
19 *158:10 *225:10 8.27285e-05
20 *224:40 *225:26 7.68979e-05
*RES
1 *1129:X *225:10 40.175 
2 *225:10 *225:18 19.4743 
3 *225:18 *225:26 34.7643 
4 *225:26 *1131:B 23 
5 *225:18 *1291:A1 23 
*END

*D_NET *226 0.0023946
*CONN
*I *1131:C I *D sky130_fd_sc_hd__and3_2
*I *1291:A2 I *D sky130_fd_sc_hd__a21oi_2
*I *1130:X O *D sky130_fd_sc_hd__a221o_2
*CAP
1 *1131:C 0.0002695
2 *1291:A2 9.17735e-05
3 *1130:X 0.000543769
4 *226:8 0.000905042
5 *1131:C *347:14 7.89973e-05
6 *1131:C *560:70 5.67058e-05
7 *226:8 *481:93 0.000172974
8 *226:8 *517:70 0
9 *226:8 *560:109 0
10 *1291:B1 *1291:A2 2.4754e-05
11 *162:31 *226:8 6.6869e-05
12 *165:23 *226:8 3.24739e-05
13 *224:19 *1291:A2 1.41077e-05
14 *224:40 *1131:C 1.00493e-05
15 *225:10 *226:8 0
16 *225:18 *1291:A2 9.84794e-05
17 *225:26 *1131:C 2.91013e-05
*RES
1 *1130:X *226:8 45.54 
2 *226:8 *1291:A2 40.0507 
3 *226:8 *1131:C 42.1429 
*END

*D_NET *227 0.00350656
*CONN
*I *1292:A I *D sky130_fd_sc_hd__nor2_2
*I *1133:A2 I *D sky130_fd_sc_hd__o31ai_2
*I *1131:X O *D sky130_fd_sc_hd__and3_2
*CAP
1 *1292:A 0
2 *1133:A2 0.000427259
3 *1131:X 0.000102274
4 *227:29 0.000260691
5 *227:6 0.000790224
6 *1133:A2 *1133:A3 0.000450064
7 *1133:A2 *228:6 9.84851e-05
8 *1133:A2 *229:10 0.000228838
9 *1133:A2 *233:8 2.07026e-05
10 *1133:A2 *560:70 7.53384e-06
11 *1133:A2 *560:74 1.92282e-05
12 *1133:A2 *560:92 0.000130355
13 *1133:A2 *588:77 0.000437428
14 *227:6 *560:70 0.0001164
15 *227:29 *1132:A2 4.60157e-05
16 *227:29 *347:14 7.33077e-05
17 *227:29 *348:12 2.26497e-05
18 *227:29 *517:70 0.000142698
19 *225:26 *227:6 9.84851e-05
20 *225:26 *227:29 3.39192e-05
*RES
1 *1131:X *227:6 25.5271 
2 *227:6 *1133:A2 35.035 
3 *227:6 *227:29 35.075 
4 *227:29 *1292:A 23 
*END

*D_NET *228 0.00122885
*CONN
*I *1137:B1 I *D sky130_fd_sc_hd__a21oi_2
*I *1133:A3 I *D sky130_fd_sc_hd__o31ai_2
*I *1132:X O *D sky130_fd_sc_hd__o21a_2
*CAP
1 *1137:B1 0
2 *1133:A3 0.00015957
3 *1132:X 1.74373e-05
4 *228:6 0.000177007
5 *1133:A3 *233:8 4.57757e-05
6 *1133:A3 *560:92 5.3304e-05
7 *228:6 *560:92 8.60475e-05
8 *1133:A2 *1133:A3 0.000450064
9 *1133:A2 *228:6 9.84851e-05
10 *1133:B1 *1133:A3 0.000141164
*RES
1 *1132:X *228:6 24.0979 
2 *228:6 *1133:A3 28.4064 
3 *228:6 *1137:B1 23 
*END

*D_NET *229 0.0021555
*CONN
*I *1290:S I *D sky130_fd_sc_hd__mux2_1
*I *1136:A2 I *D sky130_fd_sc_hd__o21ai_2
*I *1133:Y O *D sky130_fd_sc_hd__o31ai_2
*CAP
1 *1290:S 0.000127712
2 *1136:A2 0
3 *1133:Y 0.000409631
4 *229:10 0.000537343
5 *1290:S *1123:A 0
6 *1290:S *1123:B 2.04774e-05
7 *1290:S *570:69 6.60009e-05
8 *1290:S *588:54 0.000137788
9 *1290:S *609:41 0.000181934
10 *229:10 *233:8 3.1528e-06
11 *229:10 *557:42 0.000136738
12 *229:10 *588:54 0.000151825
13 *229:10 *609:41 0.000154056
14 *1133:A2 *229:10 0.000228838
*RES
1 *1133:Y *229:10 44.6907 
2 *229:10 *1136:A2 38 
3 *229:10 *1290:S 41.7286 
*END

*D_NET *230 0.00201857
*CONN
*I *1135:B1 I *D sky130_fd_sc_hd__a21oi_2
*I *1289:A1 I *D sky130_fd_sc_hd__o21ba_2
*I *1134:X O *D sky130_fd_sc_hd__and3_2
*CAP
1 *1135:B1 0.000101327
2 *1289:A1 0.00022791
3 *1134:X 0
4 *230:4 0.000329237
5 *1135:B1 *570:69 0.000270671
6 *1135:B1 *585:64 2.19845e-05
7 *1289:A1 *1289:A2 5.3304e-05
8 *1289:A1 *345:6 6.20867e-05
9 *1289:A1 *570:69 9.54157e-05
10 *1289:A1 *585:64 0.000565246
11 *1289:B1_N *1289:A1 0.00010478
12 *212:20 *1135:B1 0.000186606
*RES
1 *1134:X *230:4 23 
2 *230:4 *1289:A1 30.3329 
3 *230:4 *1135:B1 26.5007 
*END

*D_NET *231 0.00330841
*CONN
*I *1136:B1 I *D sky130_fd_sc_hd__o21ai_2
*I *1135:Y O *D sky130_fd_sc_hd__a21oi_2
*CAP
1 *1136:B1 0
2 *1135:Y 0.000176084
3 *231:14 0.000678034
4 *231:10 0.000854118
5 *231:10 *371:18 1.3221e-05
6 *231:10 *634:10 1.06175e-05
7 *231:14 *232:10 1.22822e-05
8 *231:14 *371:18 9.41704e-05
9 *1117:A *231:10 0.000142496
10 *1117:B *231:14 7.51453e-06
11 *1120:B *231:14 0.000140927
12 *1122:A *231:14 0.000302535
13 *1134:B *231:10 0
14 *1136:A1 *231:14 4.96303e-05
15 *1288:A_N *231:14 0.000161677
16 *197:26 *231:14 7.55211e-05
17 *213:28 *231:14 2.64616e-05
18 *213:38 *231:14 6.82228e-06
19 *213:51 *231:14 2.50717e-05
20 *213:72 *231:10 2.09612e-05
21 *215:10 *231:14 0.000330046
22 *216:10 *231:14 0.000180218
*RES
1 *1135:Y *231:10 41.2314 
2 *231:10 *231:14 29.9143 
3 *231:14 *1136:B1 23 
*END

*D_NET *232 0.00298598
*CONN
*I *1140:A I *D sky130_fd_sc_hd__and2_2
*I *1299:C I *D sky130_fd_sc_hd__and4bb_2
*I *1296:C I *D sky130_fd_sc_hd__and3b_2
*I *1136:Y O *D sky130_fd_sc_hd__o21ai_2
*CAP
1 *1140:A 0
2 *1299:C 6.62753e-05
3 *1296:C 5.53638e-05
4 *1136:Y 0.000384144
5 *232:23 0.000188763
6 *232:10 0.000561995
7 *1296:C *1353:A 0.000111547
8 *1299:C *1299:B_N 0.000133448
9 *1299:C *346:29 2.68863e-05
10 *1299:C *516:58 0.00012245
11 *232:10 *1352:B 2.26406e-05
12 *232:10 *346:29 0.000177755
13 *232:10 *351:10 0
14 *232:10 *585:64 0.000135008
15 *232:10 *609:41 2.0225e-05
16 *232:23 *1299:A_N 0
17 *232:23 *235:18 1.01436e-05
18 *232:23 *346:29 9.37462e-05
19 *232:23 *609:41 3.71696e-05
20 *1122:A *232:10 0.00014411
21 *47:6 *1296:C 0.000204558
22 *121:45 *232:10 9.41704e-05
23 *189:30 *1299:C 1.32314e-05
24 *197:26 *232:10 0.000114974
25 *198:14 *1299:C 1.40958e-05
26 *213:51 *232:10 1.09111e-05
27 *215:10 *232:10 5.50106e-05
28 *217:10 *232:10 0.000175071
29 *231:14 *232:10 1.22822e-05
*RES
1 *1136:Y *232:10 46.8864 
2 *232:10 *1296:C 40.2889 
3 *232:10 *232:23 17.2579 
4 *232:23 *1299:C 26.1279 
5 *232:23 *1140:A 23 
*END

*D_NET *233 0.00394953
*CONN
*I *1138:D I *D sky130_fd_sc_hd__nand4_2
*I *1295:A2 I *D sky130_fd_sc_hd__a211o_2
*I *1293:B I *D sky130_fd_sc_hd__nor2_2
*I *1137:Y O *D sky130_fd_sc_hd__a21oi_2
*CAP
1 *1138:D 0
2 *1295:A2 0
3 *1293:B 0.000397984
4 *1137:Y 6.0461e-05
5 *233:34 0.000117742
6 *233:23 8.65948e-05
7 *233:8 0.0012311
8 *233:6 0.000924722
9 *1293:B *557:50 0.000138061
10 *233:8 *1306:C1 0.00013961
11 *233:8 *557:42 4.55775e-05
12 *233:23 *351:10 0.000131847
13 *233:23 *481:70 5.81567e-05
14 *233:34 *234:8 1.27408e-05
15 *233:34 *446:22 1.65248e-05
16 *233:34 *478:28 2.05503e-05
17 *1133:A2 *233:8 2.07026e-05
18 *1133:A3 *233:8 4.57757e-05
19 *1133:B1 *233:6 9.84851e-05
20 *1133:B1 *233:8 5.3304e-05
21 *200:30 *233:8 4.34745e-05
22 *200:34 *1293:B 0.000139352
23 *200:34 *233:8 9.5877e-05
24 *200:50 *1293:B 4.21378e-05
25 *224:12 *233:34 2.5597e-05
26 *229:10 *233:8 3.1528e-06
*RES
1 *1137:Y *233:6 24.0979 
2 *233:6 *233:8 10.15 
3 *233:8 *1293:B 28.7586 
4 *233:8 *233:23 31.9057 
5 *233:23 *1295:A2 23 
6 *233:6 *233:34 31.9057 
7 *233:34 *1138:D 23 
*END

*D_NET *234 0.00177924
*CONN
*I *1139:A4 I *D sky130_fd_sc_hd__o41a_2
*I *1138:Y O *D sky130_fd_sc_hd__nand4_2
*CAP
1 *1139:A4 0
2 *1138:Y 0.000529568
3 *234:8 0.000529568
4 *234:8 *478:28 0
5 *234:8 *560:92 1.81615e-05
6 *234:8 *610:70 0.000202719
7 *1137:A1 *234:8 0.000146605
8 *1138:B *234:8 3.61511e-05
9 *121:62 *234:8 0.000199962
10 *219:12 *234:8 6.00862e-06
11 *220:10 *234:8 3.82322e-05
12 *224:12 *234:8 5.95172e-05
13 *233:34 *234:8 1.27408e-05
*RES
1 *1138:Y *234:8 46.9486 
2 *234:8 *1139:A4 38 
*END

*D_NET *235 0.00452703
*CONN
*I *1284:B1 I *D sky130_fd_sc_hd__a21o_2
*I *1140:B I *D sky130_fd_sc_hd__and2_2
*I *1139:X O *D sky130_fd_sc_hd__o41a_2
*CAP
1 *1284:B1 0.000471329
2 *1140:B 0
3 *1139:X 0.000368585
4 *235:18 0.000291813
5 *235:10 0.00113173
6 *1284:B1 *341:12 1.05441e-05
7 *1284:B1 *359:10 1.84226e-05
8 *1284:B1 *420:10 2.64616e-05
9 *1284:B1 *545:27 7.56401e-05
10 *1284:B1 *551:61 5.3304e-05
11 *1284:B1 *610:70 0.000387502
12 *235:10 *478:28 3.14242e-05
13 *235:10 *545:27 0.000104551
14 *235:10 *610:70 0.00017426
15 *235:18 *1299:B_N 0.000149517
16 *235:18 *1419:CLK 3.7122e-06
17 *235:18 *458:8 2.64616e-05
18 *235:18 *458:16 6.48049e-05
19 *235:18 *516:58 1.83564e-05
20 *1139:A3 *235:10 0.00014196
21 *151:72 *1284:B1 0.000304991
22 *151:72 *235:10 2.11066e-05
23 *198:14 *235:18 0.000640412
24 *232:23 *235:18 1.01436e-05
*RES
1 *1139:X *235:10 45.0014 
2 *235:10 *235:18 38.1407 
3 *235:18 *1140:B 38 
4 *235:10 *1284:B1 46.8657 
*END

*D_NET *236 0.00358389
*CONN
*I *1153:B I *D sky130_fd_sc_hd__nor2_2
*I *1152:A1 I *D sky130_fd_sc_hd__o21ai_2
*I *1141:X O *D sky130_fd_sc_hd__and2_2
*CAP
1 *1153:B 0.000459566
2 *1152:A1 1.49804e-05
3 *1141:X 0.000415898
4 *236:10 0.000890445
5 *1152:A1 *1155:B 5.50106e-05
6 *1152:A1 *245:12 5.50106e-05
7 *1153:B *1354:A 0.000146343
8 *1153:B *1354:B 5.50106e-05
9 *1153:B *1566:A 0
10 *1153:B *246:10 0.00063319
11 *1153:B *408:18 7.94718e-05
12 *1153:B *478:111 0.000134655
13 *1153:B *479:18 6.08751e-05
14 *1153:B *600:38 4.98718e-06
15 *236:10 *1150:B 0
16 *236:10 *475:44 2.30292e-05
17 *236:10 *475:53 1.57571e-05
18 *236:10 *477:14 9.75779e-05
19 *236:10 *477:26 2.18506e-05
20 *236:10 *479:18 9.90384e-05
21 *236:10 *600:38 4.21594e-06
22 *50:8 *236:10 0.000316977
*RES
1 *1141:X *236:10 45.6021 
2 *236:10 *1152:A1 38.6214 
3 *236:10 *1153:B 49.31 
*END

*D_NET *237 0.00305567
*CONN
*I *1143:B I *D sky130_fd_sc_hd__and2_2
*I *1155:B I *D sky130_fd_sc_hd__nor2_2
*I *1154:A1 I *D sky130_fd_sc_hd__o21ai_2
*I *1142:X O *D sky130_fd_sc_hd__and3_2
*CAP
1 *1143:B 0
2 *1155:B 0.000381486
3 *1154:A1 1.89692e-05
4 *1142:X 0.000281138
5 *237:39 0.000175246
6 *237:12 0.000589685
7 *237:8 0.000295123
8 *1155:B *1154:A2 5.32408e-05
9 *1155:B *1154:B1 2.93747e-05
10 *1155:B *1566:A 5.50106e-05
11 *1155:B *244:88 1.22822e-05
12 *1155:B *245:12 0.000200255
13 *1155:B *537:10 5.56279e-05
14 *237:8 *1460:CLK 0
15 *237:8 *600:38 0
16 *237:12 *1154:A2 4.06849e-05
17 *237:12 *1462:SET_B 1.39431e-05
18 *237:39 *1142:A 5.3304e-05
19 *237:39 *1459:CLK 0.000228909
20 *237:39 *238:6 0.00010018
21 *237:39 *238:50 3.53115e-05
22 *237:39 *479:22 0.000285017
23 *1152:A1 *1155:B 5.50106e-05
24 *51:10 *1155:B 9.58714e-05
*RES
1 *1142:X *237:8 39.5536 
2 *237:8 *237:12 18.48 
3 *237:12 *1154:A1 23.4971 
4 *237:12 *1155:B 31.9071 
5 *1142:X *237:39 29.3386 
6 *237:39 *1143:B 23 
*END

*D_NET *238 0.00614685
*CONN
*I *1156:A I *D sky130_fd_sc_hd__nor2_2
*I *1157:B I *D sky130_fd_sc_hd__xor2_2
*I *1144:C I *D sky130_fd_sc_hd__and3_2
*I *1158:A2 I *D sky130_fd_sc_hd__a21oi_2
*I *1143:X O *D sky130_fd_sc_hd__and2_2
*CAP
1 *1156:A 0
2 *1157:B 0.000121293
3 *1144:C 0.000325725
4 *1158:A2 0
5 *1143:X 0.000515887
6 *238:60 0.000806634
7 *238:50 0.00105411
8 *238:17 0.000618944
9 *238:6 0.000440341
10 *1144:C *1160:B 0
11 *1144:C *239:8 5.56356e-05
12 *1144:C *239:25 0
13 *1144:C *448:60 0.000185368
14 *1144:C *557:28 2.05503e-05
15 *1157:B *239:25 0
16 *1157:B *557:28 0.000185472
17 *238:6 *1158:A1 9.84794e-05
18 *238:6 *1158:B1 5.3304e-05
19 *238:6 *476:10 3.7122e-06
20 *238:6 *479:22 2.80512e-05
21 *238:6 *479:34 6.07078e-05
22 *238:17 *448:69 0.000138607
23 *238:17 *476:10 1.89178e-05
24 *238:50 *1461:RESET_B 0
25 *238:50 *480:87 0.000139589
26 *238:50 *481:120 0
27 *238:50 *508:123 7.46212e-05
28 *238:60 *1460:RESET_B 0.000166381
29 *238:60 *479:84 9.84851e-05
30 *238:60 *600:6 0.000349813
31 *52:6 *238:60 0.000241611
32 *53:10 *1144:C 0.000165849
33 *156:37 *1144:C 4.3271e-05
34 *237:39 *238:6 0.00010018
35 *237:39 *238:50 3.53115e-05
*RES
1 *1143:X *238:6 28.8621 
2 *238:6 *1158:A2 23 
3 *238:6 *238:17 18.0243 
4 *238:17 *1144:C 44.7321 
5 *238:17 *1157:B 17.61 
6 *1143:X *238:50 43.1164 
7 *238:50 *238:60 28.195 
8 *238:60 *1156:A 23 
*END

*D_NET *239 0.00500775
*CONN
*I *1145:B I *D sky130_fd_sc_hd__and2_2
*I *1159:A1 I *D sky130_fd_sc_hd__o21ai_2
*I *1160:B I *D sky130_fd_sc_hd__nor2_2
*I *1144:X O *D sky130_fd_sc_hd__and3_2
*CAP
1 *1145:B 2.03379e-05
2 *1159:A1 0.000331325
3 *1160:B 0.000553897
4 *1144:X 4.36215e-05
5 *239:25 0.000916538
6 *239:8 0.00116239
7 *1145:B *244:48 2.93104e-06
8 *1159:A1 *1145:A 9.26859e-05
9 *1159:A1 *1356:A1_N 2.07283e-05
10 *1159:A1 *1356:B2 9.84794e-05
11 *1159:A1 *244:48 8.52989e-05
12 *1159:A1 *412:12 2.23157e-05
13 *1160:B *249:8 0.000187497
14 *1160:B *454:10 5.73309e-05
15 *1160:B *482:20 0.000179063
16 *1160:B *523:38 0.000153436
17 *1160:B *615:86 5.50049e-05
18 *1160:B *615:103 0
19 *239:25 *1103:B 5.58473e-05
20 *239:25 *240:6 4.9662e-05
21 *239:25 *244:48 0
22 *239:25 *482:20 0.000545539
23 *239:25 *482:27 0.000132749
24 *239:25 *557:28 0
25 *1144:C *1160:B 0
26 *1144:C *239:8 5.56356e-05
27 *1144:C *239:25 0
28 *1157:B *239:25 0
29 *1356:B1 *1159:A1 0.000185434
30 *156:37 *1160:B 0
31 *157:8 *1160:B 0
*RES
1 *1144:X *239:8 38.6214 
2 *239:8 *1160:B 48.2743 
3 *239:8 *239:25 26.455 
4 *239:25 *1159:A1 30.3329 
5 *239:25 *1145:B 23.4971 
*END

*D_NET *240 0.0104786
*CONN
*I *1146:B I *D sky130_fd_sc_hd__nand2_2
*I *1164:A2 I *D sky130_fd_sc_hd__a21oi_2
*I *1161:A I *D sky130_fd_sc_hd__nor2_2
*I *1162:B I *D sky130_fd_sc_hd__or2_2
*I *1147:C I *D sky130_fd_sc_hd__and3_2
*I *1145:X O *D sky130_fd_sc_hd__and2_2
*CAP
1 *1146:B 0.000327137
2 *1164:A2 0.00013535
3 *1161:A 0
4 *1162:B 0.000194848
5 *1147:C 3.00574e-05
6 *1145:X 0.000298462
7 *240:55 0.000394149
8 *240:42 0.000514152
9 *240:21 0.00134759
10 *240:17 0.00102946
11 *240:15 0.000459201
12 *240:6 0.000328519
13 *1146:B *1099:B 7.35832e-05
14 *1146:B *241:10 0
15 *1146:B *446:40 0.000123934
16 *1146:B *483:68 6.45972e-05
17 *1146:B *576:14 0.0002263
18 *1146:B *587:16 0
19 *1147:C *242:12 1.59094e-05
20 *1147:C *244:48 5.3304e-05
21 *1162:B *250:8 0.000140259
22 *1162:B *483:20 2.32101e-05
23 *1164:A2 *1092:B 2.93747e-05
24 *1164:A2 *483:57 1.76557e-05
25 *1164:A2 *484:14 5.50049e-05
26 *240:6 *1145:A 3.91866e-05
27 *240:6 *1147:B 9.88574e-06
28 *240:6 *1404:A 2.30292e-05
29 *240:6 *242:12 1.5769e-05
30 *240:6 *244:48 0.00082899
31 *240:17 *1099:B 4.06052e-05
32 *240:17 *483:27 4.7568e-05
33 *240:21 *244:29 2.08713e-05
34 *240:21 *483:20 0.000712344
35 *240:21 *483:27 0.000108149
36 *240:21 *560:45 0.000169914
37 *240:21 *560:70 2.23143e-05
38 *240:42 *478:68 0
39 *240:42 *483:20 2.18409e-05
40 *240:55 *1092:B 2.96937e-05
41 *240:55 *1165:A1 6.00922e-06
42 *240:55 *1166:A 7.53384e-06
43 *240:55 *242:16 3.04062e-05
44 *240:55 *243:44 5.97178e-05
45 *240:55 *405:20 0.000349818
46 *1050:B *240:42 7.74865e-06
47 *1058:A1 *240:42 0.000219637
48 *1058:A3 *240:42 7.44354e-05
49 *55:12 *240:42 4.6318e-06
50 *57:12 *1164:A2 7.44161e-06
51 *151:27 *240:42 0.00024044
52 *151:39 *240:21 0.00012556
53 *151:39 *240:42 2.80924e-06
54 *153:10 *240:42 3.55458e-05
55 *161:10 *240:42 6.16439e-05
56 *162:6 *240:42 1.54983e-05
57 *162:10 *1162:B 1.32939e-05
58 *197:10 *1146:B 9.7937e-05
59 *197:10 *240:17 0.000194713
60 *197:10 *240:21 0.000301841
61 *197:111 *1146:B 0
62 *200:14 *240:55 0.000564588
63 *200:26 *240:55 3.5471e-05
64 *239:25 *240:6 4.9662e-05
*RES
1 *1145:X *240:6 32.1971 
2 *240:6 *1147:C 23.6214 
3 *240:6 *240:15 15 
4 *240:15 *240:17 2.96214 
5 *240:17 *240:21 28.8786 
6 *240:21 *1162:B 26.0243 
7 *240:21 *240:42 39.135 
8 *240:42 *1161:A 23 
9 *240:17 *240:55 38.2443 
10 *240:55 *1164:A2 40.5479 
11 *240:15 *1146:B 46.0993 
*END

*D_NET *241 0.00137823
*CONN
*I *1163:B2 I *D sky130_fd_sc_hd__a22o_2
*I *1146:Y O *D sky130_fd_sc_hd__nand2_2
*CAP
1 *1163:B2 0
2 *1146:Y 0.000479296
3 *241:10 0.000479296
4 *241:10 *1165:A1 0
5 *241:10 *242:16 0
6 *241:10 *244:29 6.4974e-05
7 *241:10 *405:20 1.6279e-05
8 *241:10 *483:57 0.000162818
9 *241:10 *483:68 4.76305e-05
10 *241:10 *576:14 5.50106e-05
11 *241:10 *576:37 7.29203e-05
12 *1146:B *241:10 0
13 *197:10 *241:10 0
*RES
1 *1146:Y *241:10 46.5136 
2 *241:10 *1163:B2 38 
*END

*D_NET *242 0.0035772
*CONN
*I *1165:A1 I *D sky130_fd_sc_hd__o21ai_2
*I *1166:B I *D sky130_fd_sc_hd__nor2_2
*I *1148:B I *D sky130_fd_sc_hd__and2_2
*I *1147:X O *D sky130_fd_sc_hd__and3_2
*CAP
1 *1165:A1 5.60268e-05
2 *1166:B 0
3 *1148:B 0.000375962
4 *1147:X 0.000345802
5 *242:16 0.000539922
6 *242:12 0.000565789
7 *1148:B *1148:A 0.000136743
8 *1148:B *1149:B 3.18198e-05
9 *1148:B *243:8 0.000128417
10 *1148:B *243:27 0.000153823
11 *1148:B *243:44 0.000158529
12 *1148:B *252:8 0.000132965
13 *1148:B *405:20 5.30038e-05
14 *1148:B *560:70 0.000371239
15 *242:12 *1147:A 0.000322544
16 *242:12 *1147:B 9.5877e-05
17 *242:12 *244:48 1.42903e-05
18 *242:16 *405:20 1.85961e-05
19 *1147:C *242:12 1.59094e-05
20 *200:26 *1148:B 7.75329e-06
21 *200:26 *242:16 0
22 *240:6 *242:12 1.5769e-05
23 *240:55 *1165:A1 6.00922e-06
24 *240:55 *242:16 3.04062e-05
25 *241:10 *1165:A1 0
26 *241:10 *242:16 0
*RES
1 *1147:X *242:12 44.0279 
2 *242:12 *242:16 2.87929 
3 *242:16 *1148:B 48.0257 
4 *242:16 *1166:B 38 
5 *242:12 *1165:A1 38.8493 
*END

*D_NET *243 0.00451764
*CONN
*I *1168:B I *D sky130_fd_sc_hd__or2_2
*I *1163:A2 I *D sky130_fd_sc_hd__a22o_2
*I *1167:A I *D sky130_fd_sc_hd__nor2_2
*I *1149:B I *D sky130_fd_sc_hd__nand2_2
*I *1148:X O *D sky130_fd_sc_hd__and2_2
*CAP
1 *1168:B 5.47649e-05
2 *1163:A2 0
3 *1167:A 0
4 *1149:B 0.000515079
5 *1148:X 0.000174782
6 *243:44 0.000402488
7 *243:27 0.000469932
8 *243:8 0.000812071
9 *1149:B *1054:B1 0.000137651
10 *1149:B *1149:A 3.7681e-05
11 *1149:B *480:45 0.000143872
12 *1149:B *480:57 4.79641e-05
13 *1149:B *559:86 0.000135037
14 *1149:B *617:116 5.50049e-05
15 *1149:B *617:122 0.000153991
16 *1168:B *1168:A 0.000164624
17 *1168:B *405:20 0.000177855
18 *243:8 *1148:A 2.64616e-05
19 *243:44 *1168:A 5.73733e-05
20 *243:44 *405:20 0.000214774
21 *243:44 *559:103 5.27444e-05
22 *1148:B *1149:B 3.18198e-05
23 *1148:B *243:8 0.000128417
24 *1148:B *243:27 0.000153823
25 *1148:B *243:44 0.000158529
26 *159:10 *1149:B 4.8373e-05
27 *200:26 *243:27 3.47825e-05
28 *200:26 *243:44 6.80242e-05
29 *240:55 *243:44 5.97178e-05
*RES
1 *1148:X *243:8 40.5271 
2 *243:8 *1149:B 47.9843 
3 *243:8 *243:27 2.25786 
4 *243:27 *1167:A 38 
5 *243:27 *243:44 22.8352 
6 *243:44 *1163:A2 23 
7 *243:44 *1168:B 25.0248 
*END

*D_NET *244 0.0136793
*CONN
*I *1150:B I *D sky130_fd_sc_hd__nand2_2
*I *1152:B1 I *D sky130_fd_sc_hd__o21ai_2
*I *1154:B1 I *D sky130_fd_sc_hd__o21ai_2
*I *1159:B1 I *D sky130_fd_sc_hd__o21ai_2
*I *1165:B1 I *D sky130_fd_sc_hd__o21ai_2
*I *1169:A I *D sky130_fd_sc_hd__and2_2
*I *1149:Y O *D sky130_fd_sc_hd__nand2_2
*CAP
1 *1150:B 0.00041565
2 *1152:B1 0
3 *1154:B1 7.61189e-05
4 *1159:B1 4.32077e-05
5 *1165:B1 0
6 *1169:A 0.000190844
7 *1149:Y 0.000121172
8 *244:88 0.000727897
9 *244:69 0.00101718
10 *244:56 0.00103078
11 *244:48 0.00137775
12 *244:29 0.00163678
13 *244:8 0.000929795
14 *1150:B *1566:A 1.01436e-05
15 *1150:B *475:53 0.000189044
16 *1150:B *475:59 0
17 *1150:B *477:14 0.000187349
18 *1150:B *477:26 3.41998e-06
19 *1150:B *479:18 9.54383e-05
20 *1150:B *537:10 1.09475e-05
21 *1154:B1 *1154:A2 5.3304e-05
22 *1154:B1 *600:12 0
23 *1154:B1 *600:38 3.26409e-05
24 *1169:A *1169:B 4.1105e-05
25 *1169:A *560:70 1.98161e-05
26 *244:8 *250:12 0.00017336
27 *244:8 *560:45 0.00017336
28 *244:29 *250:12 0.000413355
29 *244:29 *405:20 0
30 *244:29 *560:45 5.64582e-05
31 *244:29 *560:70 4.59051e-05
32 *244:48 *1147:A 2.38876e-05
33 *244:48 *412:12 7.3184e-05
34 *244:48 *557:28 0.000180097
35 *244:56 *248:8 4.16655e-05
36 *244:56 *405:32 0.000453886
37 *244:56 *482:8 0.000228624
38 *244:69 *1354:B 0.000907162
39 *244:69 *246:10 5.65084e-05
40 *244:69 *409:18 0.000100139
41 *244:69 *412:12 1.21972e-05
42 *244:69 *600:12 0
43 *244:69 *600:38 4.98765e-05
44 *244:69 *602:10 0.000487147
45 *244:88 *1154:A2 0.000137651
46 *244:88 *1566:A 2.3529e-05
47 *244:88 *245:12 0.000180218
48 *244:88 *479:18 6.16439e-05
49 *1145:B *244:48 2.93104e-06
50 *1147:C *244:48 5.3304e-05
51 *1155:B *1154:B1 2.93747e-05
52 *1155:B *244:88 1.22822e-05
53 *1159:A1 *244:48 8.52989e-05
54 *49:6 *1169:A 5.3304e-05
55 *50:8 *1150:B 0
56 *56:10 *244:29 0.000128492
57 *57:12 *244:48 3.84128e-05
58 *197:10 *244:29 0.000160625
59 *200:14 *244:56 9.5877e-05
60 *236:10 *1150:B 0
61 *239:25 *244:48 0
62 *240:6 *244:48 0.00082899
63 *240:21 *244:29 2.08713e-05
64 *241:10 *244:29 6.4974e-05
65 *242:12 *244:48 1.42903e-05
*RES
1 *1149:Y *244:8 40.61 
2 *244:8 *1169:A 41.19 
3 *244:8 *244:29 25.6264 
4 *244:29 *1165:B1 23 
5 *244:29 *244:48 47.11 
6 *244:48 *244:56 38.2443 
7 *244:56 *1159:B1 23.8493 
8 *244:56 *244:69 29.9971 
9 *244:69 *1154:B1 39.4707 
10 *244:69 *244:88 34.8057 
11 *244:88 *1152:B1 38 
12 *244:88 *1150:B 46.4514 
*END

*D_NET *245 0.00180157
*CONN
*I *1152:A2 I *D sky130_fd_sc_hd__o21ai_2
*I *1151:Y O *D sky130_fd_sc_hd__nor2_2
*CAP
1 *1152:A2 0
2 *1151:Y 0.000587171
3 *245:12 0.000587171
4 *245:12 *1154:A2 0
5 *245:12 *1566:A 5.3304e-05
6 *245:12 *247:10 0.000138444
7 *1152:A1 *245:12 5.50106e-05
8 *1155:B *245:12 0.000200255
9 *244:88 *245:12 0.000180218
*RES
1 *1151:Y *245:12 34.3929 
2 *245:12 *1152:A2 23 
*END

*D_NET *246 0.00249051
*CONN
*I *1154:A2 I *D sky130_fd_sc_hd__o21ai_2
*I *1153:Y O *D sky130_fd_sc_hd__nor2_2
*CAP
1 *1154:A2 0.000137096
2 *1153:Y 0.000531337
3 *246:10 0.000668434
4 *246:10 *1354:B 4.5051e-05
5 *246:10 *600:38 0.000134012
6 *1153:B *246:10 0.00063319
7 *1154:B1 *1154:A2 5.3304e-05
8 *1155:B *1154:A2 5.32408e-05
9 *237:12 *1154:A2 4.06849e-05
10 *244:69 *246:10 5.65084e-05
11 *244:88 *1154:A2 0.000137651
12 *245:12 *1154:A2 0
*RES
1 *1153:Y *246:10 49.0614 
2 *246:10 *1154:A2 41.5007 
*END

*D_NET *247 0.000764829
*CONN
*I *1156:B I *D sky130_fd_sc_hd__nor2_2
*I *1155:Y O *D sky130_fd_sc_hd__nor2_2
*CAP
1 *1156:B 0
2 *1155:Y 0.000177092
3 *247:10 0.000177092
4 *247:10 *1566:A 0.000137216
5 *247:10 *537:10 0.000134984
6 *245:12 *247:10 0.000138444
*RES
1 *1155:Y *247:10 41.48 
2 *247:10 *1156:B 38 
*END

*D_NET *248 0.00151985
*CONN
*I *1159:A2 I *D sky130_fd_sc_hd__o21ai_2
*I *1158:Y O *D sky130_fd_sc_hd__a21oi_2
*CAP
1 *1159:A2 3.25769e-05
2 *1158:Y 0.000362822
3 *248:8 0.000395399
4 *1159:A2 *412:12 5.50049e-05
5 *248:8 *1461:RESET_B 2.78273e-05
6 *248:8 *1462:CLK 0
7 *248:8 *480:27 0.000114074
8 *248:8 *481:14 0.000116314
9 *248:8 *481:120 0
10 *248:8 *526:10 1.26598e-05
11 *54:8 *248:8 0.000361506
12 *244:56 *248:8 4.16655e-05
*RES
1 *1158:Y *248:8 46.2443 
2 *248:8 *1159:A2 38.6214 
*END

*D_NET *249 0.000541817
*CONN
*I *1161:B I *D sky130_fd_sc_hd__nor2_2
*I *1160:Y O *D sky130_fd_sc_hd__nor2_2
*CAP
1 *1161:B 0
2 *1160:Y 8.44898e-05
3 *249:8 8.44898e-05
4 *249:8 *482:20 0.00018534
5 *1160:B *249:8 0.000187497
*RES
1 *1160:Y *249:8 40.61 
2 *249:8 *1161:B 38 
*END

*D_NET *250 0.00297254
*CONN
*I *1163:B1 I *D sky130_fd_sc_hd__a22o_2
*I *1162:X O *D sky130_fd_sc_hd__or2_2
*CAP
1 *1163:B1 0
2 *1162:X 3.16049e-05
3 *250:12 0.000708504
4 *250:8 0.000740109
5 *250:8 *483:20 9.84794e-05
6 *250:12 *1054:A1 5.79438e-05
7 *250:12 *405:20 0
8 *250:12 *559:103 0.00047003
9 *250:12 *560:45 9.68453e-05
10 *1162:B *250:8 0.000140259
11 *151:39 *250:12 2.43916e-05
12 *162:10 *250:8 1.76557e-05
13 *244:8 *250:12 0.00017336
14 *244:29 *250:12 0.000413355
*RES
1 *1162:X *250:8 39.5743 
2 *250:8 *250:12 28.1743 
3 *250:12 *1163:B1 23 
*END

*D_NET *251 0.000382629
*CONN
*I *1165:A2 I *D sky130_fd_sc_hd__o21ai_2
*I *1164:Y O *D sky130_fd_sc_hd__a21oi_2
*CAP
1 *1165:A2 3.44943e-05
2 *1164:Y 3.44943e-05
3 *1165:A2 *1147:A 6.9805e-05
4 *1165:A2 *483:57 0.000187129
5 *1165:A2 *484:14 5.67058e-05
*RES
1 *1164:Y *1165:A2 48.0507 
*END

*D_NET *252 0.00035244
*CONN
*I *1167:B I *D sky130_fd_sc_hd__nor2_2
*I *1166:Y O *D sky130_fd_sc_hd__nor2_2
*CAP
1 *1167:B 0
2 *1166:Y 8.07175e-05
3 *252:8 8.07175e-05
4 *252:8 *405:20 5.80396e-05
5 *1148:B *252:8 0.000132965
*RES
1 *1166:Y *252:8 39.9057 
2 *252:8 *1167:B 38 
*END

*D_NET *253 0.00203824
*CONN
*I *1169:B I *D sky130_fd_sc_hd__and2_2
*I *1168:X O *D sky130_fd_sc_hd__or2_2
*CAP
1 *1169:B 0.000273392
2 *1168:X 0.000253877
3 *253:10 0.000527269
4 *1169:B *560:70 0.000188594
5 *253:10 *1463:CLK 9.90119e-05
6 *253:10 *405:20 5.3304e-05
7 *253:10 *448:45 0.000257029
8 *253:10 *483:27 3.217e-05
9 *253:10 *602:67 0.000102924
10 *1169:A *1169:B 4.1105e-05
11 *49:6 *1169:B 0.000209559
*RES
1 *1168:X *253:10 43.6964 
2 *253:10 *1169:B 43.8829 
*END

*D_NET *254 0.00205481
*CONN
*I *1171:B I *D sky130_fd_sc_hd__xnor2_2
*I *1170:Y O *D sky130_fd_sc_hd__nor2_2
*CAP
1 *1171:B 0
2 *1170:Y 0.000492812
3 *254:8 0.000492812
4 *254:8 *1192:A 0.000107218
5 *254:8 *1192:B 1.82497e-05
6 *254:8 *1330:A0 0.000271704
7 *254:8 *1330:A1 0.000220306
8 *254:8 *1436:RESET_B 8.19018e-06
9 *254:8 *1437:CLK 0
10 *254:8 *464:29 4.2477e-05
11 *254:8 *465:26 5.97615e-05
12 *254:8 *465:34 0.000183873
13 *254:8 *573:47 9.23705e-06
14 *254:8 *573:62 1.24007e-05
15 *254:8 *575:57 0.000135772
*RES
1 *1170:Y *254:8 48.3571 
2 *254:8 *1171:B 38 
*END

*D_NET *255 0.0050975
*CONN
*I *1173:B I *D sky130_fd_sc_hd__xnor2_2
*I *1172:Y O *D sky130_fd_sc_hd__nor2_2
*CAP
1 *1173:B 0
2 *1172:Y 0.000252688
3 *255:20 0.000845002
4 *255:10 0.00109769
5 *255:10 *1077:A 1.01436e-05
6 *255:10 *1342:B1 0.000360624
7 *255:10 *1437:RESET_B 0
8 *255:10 *390:12 5.3304e-05
9 *255:10 *391:10 0.000311895
10 *255:10 *392:10 9.41704e-05
11 *255:10 *467:28 1.21972e-05
12 *255:20 *1173:A 5.61255e-06
13 *255:20 *1333:A2 0.000136738
14 *255:20 *397:26 0.000288975
15 *255:20 *398:12 0.000316532
16 *255:20 *457:20 6.3771e-05
17 *255:20 *465:34 0.000140935
18 *255:20 *488:22 7.82139e-05
19 *255:20 *573:47 9.54192e-05
20 *255:20 *573:62 4.82966e-07
21 *255:20 *575:57 0.000377454
22 *37:26 *255:20 0.000100803
23 *117:10 *255:20 9.84851e-05
24 *179:47 *255:20 0.000356366
*RES
1 *1172:Y *255:10 44.525 
2 *255:10 *255:20 35.3414 
3 *255:20 *1173:B 23 
*END

*D_NET *256 0.00817152
*CONN
*I *1175:B I *D sky130_fd_sc_hd__xnor2_2
*I *1174:Y O *D sky130_fd_sc_hd__nor2_2
*CAP
1 *1175:B 0.00041004
2 *1174:Y 0.000703435
3 *256:24 0.000966766
4 *256:18 0.00166922
5 *256:10 0.00181593
6 *1175:B *258:74 3.34818e-06
7 *1175:B *462:12 0.000215512
8 *1175:B *472:16 7.3074e-05
9 *1175:B *563:30 0
10 *1175:B *574:23 0.000111123
11 *1175:B *574:69 5.06657e-05
12 *256:10 *1438:RESET_B 0.000263901
13 *256:10 *470:31 6.842e-05
14 *256:18 *1328:A0 1.34181e-05
15 *256:18 *1329:B1_N 0.000101514
16 *256:18 *263:16 0
17 *256:18 *471:32 3.27254e-05
18 *256:18 *471:34 0.000595307
19 *256:24 *1259:A 9.67842e-05
20 *256:24 *1431:RESET_B 0.000322717
21 *256:24 *598:72 0.00014144
22 uio_oe[2] *256:10 7.57281e-06
23 uio_oe[4] *256:18 0
24 *25:10 *256:24 0.000119467
25 *29:18 *256:18 1.76043e-05
26 *109:10 *256:18 0.000371543
27 *116:8 *1175:B 0
*RES
1 *1174:Y *256:10 47.9221 
2 *256:10 *256:18 49.4714 
3 *256:18 *256:24 42.0557 
4 *256:24 *1175:B 46.2443 
*END

*D_NET *257 0.0172535
*CONN
*I *1177:B I *D sky130_fd_sc_hd__xnor2_2
*I *1176:Y O *D sky130_fd_sc_hd__nor2_2
*CAP
1 *1177:B 0.000682405
2 *1176:Y 4.34984e-05
3 *257:30 0.00382892
4 *257:12 0.00319002
5 *1177:B *1012:A 2.47128e-05
6 *1177:B *1177:A 0.000130059
7 *257:12 *1178:A 4.45184e-05
8 *257:12 *461:97 2.05503e-05
9 *257:30 *1203:B1 0
10 *257:30 *1440:RESET_B 0.000131852
11 *257:30 *1579:inc 2.34898e-05
12 *257:30 *270:14 0.000262265
13 *257:30 *271:18 5.7327e-05
14 *257:30 *275:30 0.000162133
15 *257:30 *324:22 3.54174e-05
16 *257:30 *460:34 0.000191676
17 *257:30 *461:97 7.12426e-05
18 *257:30 *471:66 5.10636e-05
19 *257:30 *472:50 1.73354e-05
20 *257:30 *492:37 0
21 *257:30 *495:14 1.9545e-05
22 *257:30 *495:56 8.05332e-05
23 *257:30 *503:24 0.00049822
24 *257:30 *575:8 0.00026377
25 *257:30 *577:26 1.09783e-05
26 *257:30 *580:34 0.00104208
27 *257:30 *580:44 6.55538e-05
28 *257:30 *591:29 0.00091049
29 *257:30 *617:42 0.000197988
30 *257:30 *625:16 0.0012746
31 *257:30 *626:28 0.000693915
32 *257:30 *631:32 0.00151476
33 *257:30 *631:67 0.00101893
34 *64:30 *257:30 2.11066e-05
35 *126:24 *257:30 5.08422e-06
36 *127:8 *1177:B 0.00039759
37 *127:12 *257:30 0.000139635
38 *128:32 *257:30 0
39 *193:24 *257:30 0.000130177
*RES
1 *1176:Y *257:12 46.9425 
2 *257:12 *257:30 43.9354 
3 *257:30 *1177:B 48.3986 
*END

*D_NET *258 0.0188764
*CONN
*I *1179:B I *D sky130_fd_sc_hd__xnor2_2
*I *1178:Y O *D sky130_fd_sc_hd__nor2_2
*CAP
1 *1179:B 0.000689902
2 *1178:Y 0.000412186
3 *258:74 0.00175335
4 *258:66 0.0023443
5 *258:44 0.00196275
6 *258:30 0.000857029
7 *258:18 0.000501744
8 *258:10 0.000738801
9 *1179:B *457:85 0.000228903
10 *1179:B *461:39 0.000174615
11 *1179:B *473:19 0.000235723
12 *258:10 *1184:B 5.85486e-05
13 *258:10 *471:66 2.58484e-05
14 *258:10 *472:66 1.05441e-05
15 *258:18 *1280:B 0.000101527
16 *258:18 *472:50 2.12347e-06
17 *258:18 *506:31 0.000314143
18 *258:30 *1280:B 7.98243e-05
19 *258:30 *580:34 0.000115989
20 *258:30 *584:46 3.18198e-05
21 *258:30 *595:41 9.63178e-05
22 *258:44 *1281:A 1.42071e-05
23 *258:44 *449:36 0.000520207
24 *258:44 *505:10 9.84794e-05
25 *258:44 *562:28 0.000106986
26 *258:44 *580:22 8.51239e-05
27 *258:44 *595:41 7.60782e-05
28 *258:44 *596:45 0.000116701
29 *258:66 *1202:B2 3.33274e-05
30 *258:66 *1443:RESET_B 0.000151929
31 *258:66 *1454:CLK 5.50049e-05
32 *258:66 *271:10 5.08127e-05
33 *258:66 *319:10 0
34 *258:66 *324:10 7.41959e-05
35 *258:66 *324:14 0.000592786
36 *258:66 *456:214 0.000758935
37 *258:66 *504:8 5.50106e-05
38 *258:66 *564:37 0.000436666
39 *258:66 *564:45 4.68377e-05
40 *258:66 *580:12 1.38526e-05
41 *258:66 *580:22 2.46727e-05
42 *258:66 *612:22 0.000184318
43 *258:66 *612:54 2.05503e-05
44 *258:66 *623:28 6.56284e-05
45 *258:66 *624:59 8.30566e-06
46 *258:74 *1426:CLK 0
47 *258:74 *1434:CLK 0
48 *258:74 *1524:A 0.000178594
49 *258:74 *261:28 2.26497e-05
50 *258:74 *324:10 7.69538e-05
51 *258:74 *457:87 0
52 *258:74 *472:10 0
53 *258:74 *496:27 5.83041e-05
54 *258:74 *571:10 4.24694e-06
55 *258:74 *571:25 2.93876e-05
56 *258:74 *574:23 0.000884676
57 *258:74 *574:69 0.000102881
58 *258:74 *575:16 5.22717e-05
59 *258:74 *575:37 4.00673e-05
60 *1175:B *258:74 3.34818e-06
61 *1209:A1 *258:74 0.000459011
62 *1454:D *258:66 5.92579e-05
63 *1456:D *258:44 1.64354e-05
64 *29:8 *1179:B 8.7769e-05
65 *75:8 *258:44 2.90698e-05
66 *111:8 *258:74 1.61969e-05
67 *129:24 *258:74 0.000174829
68 *131:8 *258:74 0.000287257
69 *134:14 *258:66 0.000462311
70 *141:34 *258:30 0.000186606
71 *141:34 *258:44 0.000180312
72 *142:22 *258:44 0.000473211
73 *142:32 *258:30 0.00018536
74 *142:32 *258:44 0
75 *186:12 *258:10 0.000446281
76 *193:24 *258:18 3.24898e-05
*RES
1 *1178:Y *258:10 44.815 
2 *258:10 *258:18 35.0336 
3 *258:18 *258:30 49.8264 
4 *258:30 *258:44 46.1571 
5 *258:44 *258:66 45.2014 
6 *258:66 *258:74 38.8007 
7 *258:74 *1179:B 36.9821 
*END

*D_NET *259 0.0166092
*CONN
*I *1181:B I *D sky130_fd_sc_hd__xnor2_2
*I *1180:Y O *D sky130_fd_sc_hd__nor2_2
*CAP
1 *1181:B 0.000178795
2 *1180:Y 0.000195687
3 *259:40 0.00107998
4 *259:24 0.00320855
5 *259:8 0.00250305
6 *1181:B *472:16 6.65045e-05
7 *1181:B *572:31 0.000208936
8 *259:8 *498:16 6.61938e-05
9 *259:8 *569:81 0.000283266
10 *259:24 *1225:A1 5.64492e-05
11 *259:24 *1225:B1 2.26406e-05
12 *259:24 *1578:addr[1] 0.000821371
13 *259:24 *284:64 5.72853e-05
14 *259:24 *287:41 4.67233e-05
15 *259:24 *289:35 0.000131425
16 *259:24 *290:36 9.07097e-05
17 *259:24 *290:49 4.15283e-06
18 *259:24 *292:8 1.33995e-05
19 *259:24 *292:27 2.12347e-06
20 *259:24 *307:53 0.00085997
21 *259:24 *503:50 0.000309608
22 *259:24 *569:26 1.31913e-05
23 *259:24 *577:43 0.000182109
24 *259:24 *578:56 0
25 *259:24 *602:73 0.000374212
26 *259:24 *624:59 0.00146875
27 *259:40 *1259:A 4.98399e-06
28 *259:40 *1328:A1 5.3304e-05
29 *259:40 *394:20 5.19696e-05
30 *259:40 *395:10 0.000146605
31 *259:40 *457:66 2.05503e-05
32 *259:40 *472:16 0.000476824
33 *259:40 *472:28 7.23805e-05
34 *259:40 *474:39 0.000104657
35 *259:40 *566:10 2.2514e-05
36 *259:40 *569:26 0.000297839
37 *259:40 *571:56 0.00012235
38 *259:40 *572:31 0.00020594
39 *259:40 *627:22 0.000204821
40 *64:30 *259:24 8.89969e-05
41 *112:10 *259:40 9.91798e-05
42 *113:12 *1181:B 0.000180224
43 *122:8 *259:8 9.11055e-05
44 *123:10 *259:24 3.20613e-06
45 *143:10 *259:24 3.35885e-06
46 *143:24 *259:24 4.84342e-05
47 *173:22 *259:24 0.00106105
48 *179:14 *259:24 0.00035949
49 *179:14 *259:40 0.000101638
50 *179:18 *259:40 0.000197519
51 *179:47 *259:40 0.000137334
52 *210:24 *259:24 0.000207853
*RES
1 *1180:Y *259:8 42.1946 
2 *259:8 *259:24 49.6812 
3 *259:24 *259:40 49.9698 
4 *259:40 *1181:B 27.93 
*END

*D_NET *260 0.0159973
*CONN
*I *1183:B I *D sky130_fd_sc_hd__xnor2_2
*I *1182:Y O *D sky130_fd_sc_hd__nor2_2
*CAP
1 *1183:B 0
2 *1182:Y 0.00013497
3 *260:24 0.00489447
4 *260:12 0.00502944
5 *260:12 *1018:A 0
6 *260:12 *473:83 0.000192511
7 *260:12 *474:70 0
8 *260:12 *591:29 0.000181231
9 *260:12 *631:67 1.76364e-05
10 *260:24 *1259:B 4.51797e-05
11 *260:24 *461:97 0
12 *260:24 *462:50 0.000301416
13 *260:24 *473:35 1.25293e-05
14 *260:24 *474:39 0.00372449
15 *260:24 *574:31 0.00142383
16 *260:24 *598:40 0
17 uio_out[4] *260:24 0
18 uio_out[5] *260:24 0
19 uio_out[6] *260:24 0
20 *112:10 *260:24 2.24608e-05
21 *133:19 *260:12 1.70831e-05
*RES
1 *1182:Y *260:12 47.734 
2 *260:12 *260:24 37.794 
3 *260:24 *1183:B 38 
*END

*D_NET *261 0.0154311
*CONN
*I *1185:B I *D sky130_fd_sc_hd__xnor2_2
*I *1184:Y O *D sky130_fd_sc_hd__nor2_2
*CAP
1 *1185:B 0
2 *1184:Y 0.000306375
3 *261:28 0.00459478
4 *261:12 0.00490116
5 *261:12 *1280:B 3.61511e-05
6 *261:12 *338:14 0.000142173
7 *261:12 *472:50 1.6244e-05
8 *261:12 *506:31 0.000311823
9 *261:28 *457:87 0
10 *261:28 *461:54 1.13839e-05
11 *261:28 *613:30 0.000270755
12 *261:28 *617:22 0.000192372
13 *261:28 *620:30 0
14 *261:28 *621:46 3.66136e-05
15 *261:28 *623:28 3.25947e-05
16 *261:28 *624:28 0
17 *261:28 *625:22 0.000479029
18 *261:28 *628:22 0
19 *261:28 *630:24 0.000651283
20 *261:28 *631:32 0.00255028
21 *261:28 *631:67 0.000311784
22 *186:12 *261:12 9.0029e-05
23 *193:24 *261:28 0.00047363
24 *258:74 *261:28 2.26497e-05
*RES
1 *1184:Y *261:12 43.4789 
2 *261:12 *261:28 45.2197 
3 *261:28 *1185:B 38 
*END

*D_NET *262 0.00817591
*CONN
*I *1187:B I *D sky130_fd_sc_hd__xnor2_2
*I *1186:Y O *D sky130_fd_sc_hd__nor2_2
*CAP
1 *1187:B 0
2 *1186:Y 0.000131885
3 *262:18 0.000429009
4 *262:12 0.00184954
5 *262:10 0.00142053
6 *262:8 0.000131885
7 *262:8 *470:54 0.000106747
8 *262:12 *394:14 0.000245446
9 *262:12 *471:34 0.00351364
10 *262:18 *1426:RESET_B 0
11 *262:18 *472:10 0.00011868
12 *262:18 *472:16 2.75733e-06
13 *262:18 *473:35 0.000152633
14 uio_out[2] *262:8 1.90767e-05
15 *112:10 *262:18 5.40866e-05
*RES
1 *1186:Y *262:8 40.2579 
2 *262:8 *262:10 15 
3 *262:10 *262:12 45.8821 
4 *262:12 *262:18 38.5964 
5 *262:18 *1187:B 23 
*END

*D_NET *263 0.00424828
*CONN
*I *1189:B I *D sky130_fd_sc_hd__xnor2_2
*I *1188:Y O *D sky130_fd_sc_hd__nor2_2
*CAP
1 *1189:B 0
2 *1188:Y 0.00103182
3 *263:16 0.000208842
4 *263:8 0.00124066
5 *263:8 *1341:B1 5.47927e-05
6 *263:8 *264:10 0.000445588
7 *263:16 *264:10 0
8 *263:16 *457:172 0.00012073
9 uio_oe[4] *263:16 6.97776e-05
10 *1341:A1 *263:8 2.18506e-05
11 *24:12 *263:16 0.000359546
12 *35:14 *263:8 0.000552717
13 *109:10 *263:16 0.00014196
14 *256:18 *263:16 0
*RES
1 *1188:Y *263:8 38.8879 
2 *263:8 *263:16 36.2143 
3 *263:16 *1189:B 23 
*END

*D_NET *264 0.00141606
*CONN
*I *1191:B I *D sky130_fd_sc_hd__xnor2_2
*I *1190:Y O *D sky130_fd_sc_hd__nor2_2
*CAP
1 *1191:B 0
2 *1190:Y 0.000241349
3 *264:10 0.000241349
4 *264:10 *1191:A 4.95614e-05
5 *264:10 *470:21 0.000107216
6 *1341:A1 *264:10 5.50049e-05
7 *35:14 *264:10 0.000275993
8 *263:8 *264:10 0.000445588
9 *263:16 *264:10 0
*RES
1 *1190:Y *264:10 45.5193 
2 *264:10 *1191:B 38 
*END

*D_NET *265 0.000361057
*CONN
*I *1193:B I *D sky130_fd_sc_hd__xnor2_2
*I *1192:Y O *D sky130_fd_sc_hd__nor2_2
*CAP
1 *1193:B 0
2 *1192:Y 8.65918e-05
3 *265:8 8.65918e-05
4 *265:8 *457:188 5.72139e-05
5 *265:8 *469:22 0.000130659
*RES
1 *1192:Y *265:8 39.9057 
2 *265:8 *1193:B 38 
*END

*D_NET *266 0.000658887
*CONN
*I *1195:B I *D sky130_fd_sc_hd__xnor2_2
*I *1194:Y O *D sky130_fd_sc_hd__nor2_2
*CAP
1 *1195:B 5.7316e-05
2 *1194:Y 0.000113251
3 *266:10 0.000170567
4 *266:10 *467:24 8.69132e-05
5 *266:10 *467:28 1.32314e-05
6 *266:10 *598:40 7.03766e-05
7 uio_out[6] *266:10 6.97776e-05
8 *34:10 *1195:B 2.1819e-05
9 *35:14 *1195:B 5.56356e-05
*RES
1 *1194:Y *266:10 40.5271 
2 *266:10 *1195:B 39.0979 
*END

*D_NET *267 0.000266992
*CONN
*I *1197:B I *D sky130_fd_sc_hd__xnor2_2
*I *1196:Y O *D sky130_fd_sc_hd__nor2_2
*CAP
1 *1197:B 0
2 *1196:Y 0.000133496
3 *267:8 0.000133496
4 *267:8 *1428:RESET_B 0
5 *267:8 *467:10 0
6 *267:8 *467:24 0
7 *267:8 *598:40 0
*RES
1 *1196:Y *267:8 40.2579 
2 *267:8 *1197:B 38 
*END

*D_NET *268 0.000751225
*CONN
*I *1199:B I *D sky130_fd_sc_hd__xnor2_2
*I *1198:Y O *D sky130_fd_sc_hd__nor2_2
*CAP
1 *1199:B 0
2 *1198:Y 0.000248805
3 *268:8 0.000248805
4 *268:8 *1196:A 4.08537e-05
5 *268:8 *1335:A1 2.95461e-05
6 *268:8 *269:10 0
7 *268:8 *318:22 0
8 *268:8 *459:35 0.000125147
9 *268:8 *473:65 5.80693e-05
*RES
1 *1198:Y *268:8 43.075 
2 *268:8 *1199:B 38 
*END

*D_NET *269 0.00155033
*CONN
*I *1201:B I *D sky130_fd_sc_hd__xnor2_2
*I *1200:Y O *D sky130_fd_sc_hd__nor2_2
*CAP
1 *1201:B 0
2 *1200:Y 0.000507137
3 *269:10 0.000507137
4 *269:10 *1428:RESET_B 0
5 *269:10 *459:20 0.000139346
6 *269:10 *459:22 0.0001396
7 *120:8 *269:10 0.000162818
8 *173:47 *269:10 9.42974e-05
9 *268:8 *269:10 0
*RES
1 *1200:Y *269:10 47.5079 
2 *269:10 *1201:B 38 
*END

*D_NET *270 0.00128244
*CONN
*I *1203:C1 I *D sky130_fd_sc_hd__a221o_2
*I *1202:X O *D sky130_fd_sc_hd__o2bb2a_2
*CAP
1 *1203:C1 0
2 *1202:X 0.000334216
3 *270:14 0.000334216
4 *270:14 *1579:inc 3.47781e-05
5 *270:14 *319:24 0
6 *270:14 *490:26 2.02872e-05
7 *270:14 *604:8 0.000100069
8 *126:24 *270:14 0.000196612
9 *257:30 *270:14 0.000262265
*RES
1 *1202:X *270:14 44.3593 
2 *270:14 *1203:C1 38 
*END

*D_NET *271 0.00267823
*CONN
*I *1204:C1 I *D sky130_fd_sc_hd__o221a_2
*I *1203:X O *D sky130_fd_sc_hd__a221o_2
*CAP
1 *1204:C1 0
2 *1203:X 0.000373126
3 *271:18 0.000434967
4 *271:10 0.000808093
5 *271:10 *1203:A2 4.9662e-05
6 *271:10 *321:18 0.000224535
7 *271:10 *321:33 0.000179496
8 *271:10 *612:22 3.61334e-05
9 *271:10 *612:54 6.65598e-06
10 *271:10 *623:28 2.97594e-05
11 *271:18 *1203:B1 3.36692e-05
12 *271:18 *1204:B1 3.47385e-05
13 *271:18 *311:34 0.000257636
14 *271:18 *579:21 6.65598e-06
15 *271:18 *624:38 5.79466e-05
16 *128:32 *271:18 3.70187e-05
17 *257:30 *271:18 5.7327e-05
18 *258:66 *271:10 5.08127e-05
*RES
1 *1203:X *271:10 44.8771 
2 *271:10 *271:18 36.67 
3 *271:18 *1204:C1 38 
*END

*D_NET *272 0.00139341
*CONN
*I *1205:C1 I *D sky130_fd_sc_hd__a221o_2
*I *1204:X O *D sky130_fd_sc_hd__o221a_2
*CAP
1 *1205:C1 0
2 *1204:X 0.000217063
3 *272:10 0.000217063
4 *272:10 *313:10 1.58949e-05
5 *272:10 *323:30 0.000347199
6 *1204:A1 *272:10 4.21178e-05
7 *1204:B2 *272:10 0.000139804
8 *127:12 *272:10 0.000180132
9 *128:32 *272:10 0.000180827
10 *129:24 *272:10 5.3304e-05
*RES
1 *1204:X *272:10 44.5664 
2 *272:10 *1205:C1 38 
*END

*D_NET *273 0.0021824
*CONN
*I *1207:B1 I *D sky130_fd_sc_hd__a22o_2
*I *1205:X O *D sky130_fd_sc_hd__a221o_2
*CAP
1 *1207:B1 0
2 *1205:X 0.000852917
3 *273:18 0.000852917
4 *273:18 *1207:A2 5.3304e-05
5 *273:18 *1263:A3 4.8945e-05
6 *273:18 *1263:B1 3.9088e-05
7 *273:18 *324:10 0.000211123
8 *273:18 *449:111 2.4526e-05
9 *129:24 *273:18 3.7122e-06
10 *130:32 *273:18 9.58714e-05
*RES
1 *1205:X *273:18 35.6771 
2 *273:18 *1207:B1 23 
*END

*D_NET *274 0.000969566
*CONN
*I *1207:B2 I *D sky130_fd_sc_hd__a22o_2
*I *1206:X O *D sky130_fd_sc_hd__o22a_2
*CAP
1 *1207:B2 0
2 *1206:X 0.000236576
3 *274:10 0.000236576
4 *274:10 *1206:A2 0.000159402
5 *274:10 *310:47 0.00017761
6 *274:10 *334:8 0.000159402
*RES
1 *1206:X *274:10 42.3086 
2 *274:10 *1207:B2 38 
*END

*D_NET *275 0.00769713
*CONN
*I *1209:A3 I *D sky130_fd_sc_hd__o31ai_2
*I *1208:A3 I *D sky130_fd_sc_hd__a31o_2
*I *1207:X O *D sky130_fd_sc_hd__a22o_2
*CAP
1 *1209:A3 2.43873e-05
2 *1208:A3 0.000836074
3 *1207:X 0.000460502
4 *275:30 0.00137999
5 *275:22 0.000942017
6 *275:14 0.000834213
7 *1208:A3 *461:18 5.3304e-05
8 *1208:A3 *495:56 0
9 *275:14 *1207:A2 4.37509e-06
10 *275:14 *307:32 0.000196562
11 *275:14 *307:53 3.59647e-05
12 *275:14 *503:50 2.05503e-05
13 *275:14 *569:26 2.83401e-05
14 *275:14 *624:59 8.19494e-05
15 *275:22 *1446:RESET_B 2.93747e-05
16 *275:22 *334:16 0
17 *275:22 *449:111 4.56255e-05
18 *275:22 *574:23 0
19 *275:22 *599:35 0.000456408
20 *275:22 *626:28 8.62074e-05
21 *275:30 *1037:A 0.000175718
22 *275:30 *1446:RESET_B 0.000181564
23 *275:30 *276:16 8.59683e-05
24 *275:30 *461:18 0.000124112
25 *275:30 *494:48 7.28839e-05
26 *275:30 *495:56 0
27 *275:30 *496:6 5.50106e-05
28 *1209:A1 *275:30 9.58714e-05
29 *64:30 *275:14 0.000765099
30 *127:12 *275:30 0.000187716
31 *130:12 *1208:A3 0.000190005
32 *130:40 *275:14 2.26497e-05
33 *131:23 *1208:A3 6.25492e-05
34 *257:30 *275:30 0.000162133
*RES
1 *1207:X *275:14 48.9347 
2 *275:14 *275:22 30.2811 
3 *275:22 *275:30 42.8429 
4 *275:30 *1208:A3 34.3514 
5 *275:22 *1209:A3 23.4971 
*END

*D_NET *276 0.00529719
*CONN
*I *1209:B1 I *D sky130_fd_sc_hd__o31ai_2
*I *1208:X O *D sky130_fd_sc_hd__a31o_2
*CAP
1 *1209:B1 0
2 *1208:X 0.000171321
3 *276:16 0.00166527
4 *276:10 0.00183659
5 *276:16 *1037:A 8.2976e-05
6 *276:16 *1446:RESET_B 0.00051227
7 *276:16 *569:26 1.09903e-05
8 *276:16 *599:33 2.98648e-05
9 *1446:D *276:16 6.94132e-05
10 *130:12 *276:10 4.67488e-05
11 *140:12 *276:10 0.000355699
12 *143:52 *276:10 0.000360161
13 *143:52 *276:16 6.99175e-05
14 *275:30 *276:16 8.59683e-05
*RES
1 *1208:X *276:10 43.8207 
2 *276:10 *276:16 37.0814 
3 *276:16 *1209:B1 23 
*END

*D_NET *277 0.00918674
*CONN
*I *1242:A_N I *D sky130_fd_sc_hd__and2b_2
*I *1279:A I *D sky130_fd_sc_hd__nand2_2
*I *1256:B I *D sky130_fd_sc_hd__or2_2
*I *1210:Y O *D sky130_fd_sc_hd__nor2_2
*CAP
1 *1242:A_N 0.000475472
2 *1279:A 0.000442599
3 *1256:B 0.000127571
4 *1210:Y 2.33722e-05
5 *277:25 0.00244267
6 *277:8 0.00167554
7 *1242:A_N *1218:B 2.8314e-06
8 *1242:A_N *1245:A2 0
9 *1242:A_N *280:76 0.000143838
10 *1242:A_N *303:10 0.000227787
11 *1242:A_N *304:10 2.86544e-05
12 *1242:A_N *304:28 0.000149246
13 *1242:A_N *305:10 4.93812e-05
14 *1242:A_N *569:63 1.53521e-05
15 *1256:B *299:65 0.000148517
16 *1256:B *570:69 1.40958e-05
17 *1256:B *596:85 1.12487e-05
18 *1279:A *1110:A 0.000117075
19 *1279:A *1111:A 0
20 *1279:A *1218:B 3.44315e-05
21 *1279:A *280:62 0
22 *1279:A *285:18 2.44616e-06
23 *1279:A *499:20 4.7803e-05
24 *1279:A *579:39 2.31687e-05
25 *1279:A *621:72 0.000117609
26 *277:8 *299:65 1.12695e-05
27 *277:8 *570:55 6.00862e-06
28 *277:25 *1035:A 7.07766e-05
29 *277:25 *283:14 0.000278501
30 *277:25 *461:97 0.00137529
31 *277:25 *486:20 0
32 *277:25 *495:14 0.000125308
33 *277:25 *621:72 8.70828e-05
34 *22:10 *1242:A_N 0.000137535
35 *64:30 *277:25 0.000215229
36 *143:32 *277:25 8.35126e-06
37 *173:22 *277:25 0.000224907
38 *194:24 *1279:A 0
39 *198:56 *1256:B 0.000177227
40 *198:56 *277:8 4.9808e-05
41 *207:14 *1279:A 2.20055e-05
42 *207:22 *1279:A 7.67422e-05
*RES
1 *1210:Y *277:8 38.6732 
2 *277:8 *1256:B 41.1796 
3 *277:8 *277:25 20.6928 
4 *277:25 *1279:A 45.7471 
5 *277:25 *1242:A_N 47.6632 
*END

*D_NET *278 0.00836159
*CONN
*I *1218:A I *D sky130_fd_sc_hd__nor2_2
*I *1219:B I *D sky130_fd_sc_hd__or3b_2
*I *1212:A I *D sky130_fd_sc_hd__inv_2
*I *1211:X O *D sky130_fd_sc_hd__and3b_2
*CAP
1 *1218:A 0
2 *1219:B 0
3 *1212:A 0
4 *1211:X 0.000963066
5 *278:53 0.000350964
6 *278:43 0.00127478
7 *278:20 0.00108314
8 *278:12 0.00112239
9 *278:12 *280:62 9.41704e-05
10 *278:12 *280:110 7.01687e-05
11 *278:12 *282:10 4.95081e-05
12 *278:12 *293:20 0.000511632
13 *278:12 *294:16 9.82887e-05
14 *278:12 *499:10 3.44001e-05
15 *278:12 *556:58 4.05745e-05
16 *278:12 *556:60 2.64616e-05
17 *278:20 *289:14 5.50049e-05
18 *278:20 *473:65 7.52747e-05
19 *278:43 *1110:A 8.27142e-05
20 *278:43 *1218:B 0.000377922
21 *278:43 *1232:C 4.66283e-05
22 *278:43 *1233:A1 4.77222e-05
23 *278:43 *285:18 7.58226e-05
24 *278:43 *289:14 0.000107476
25 *278:43 *297:10 0.000139352
26 *278:43 *497:44 6.71221e-05
27 *278:43 *621:72 0.000392597
28 *278:53 *330:22 0.000277792
29 *278:53 *337:12 7.89883e-05
30 *278:53 *497:44 6.97863e-05
31 *1215:A2 *278:12 0.000107894
32 *1215:B1 *278:12 8.48502e-06
33 *123:10 *278:43 4.24694e-06
34 *124:12 *278:20 0.000177264
35 *141:71 *278:43 0.000229828
36 *141:71 *278:53 2.36123e-05
37 *189:93 *278:12 3.32677e-05
38 *194:24 *278:43 2.81181e-05
39 *194:24 *278:53 7.38543e-05
40 *198:56 *278:12 6.12854e-05
*RES
1 *1211:X *278:12 39.7579 
2 *278:12 *278:20 33.2314 
3 *278:20 *1212:A 23 
4 *278:20 *278:43 47.255 
5 *278:43 *278:53 35.7793 
6 *278:53 *1219:B 23 
7 *278:43 *1218:A 23 
*END

*D_NET *279 0.002922
*CONN
*I *1220:A1 I *D sky130_fd_sc_hd__a21o_2
*I *1226:A1 I *D sky130_fd_sc_hd__a2111oi_2
*I *1212:Y O *D sky130_fd_sc_hd__inv_2
*CAP
1 *1220:A1 0
2 *1226:A1 0.000214535
3 *1212:Y 0.000331041
4 *279:48 0.000152274
5 *279:36 0.000331784
6 *279:10 0.000366066
7 *1226:A1 *1448:CLK 5.67058e-05
8 *279:10 *290:28 6.77187e-05
9 *279:10 *449:219 1.74874e-06
10 *279:10 *449:234 4.95487e-06
11 *279:10 *473:65 1.41324e-05
12 *279:10 *473:71 0.000151382
13 *279:10 *602:73 9.17918e-05
14 *279:10 *602:94 7.89973e-05
15 *279:36 *1220:A2 1.48514e-05
16 *279:36 *284:35 0.00029938
17 *279:36 *290:49 2.33476e-05
18 *279:36 *292:8 5.58152e-06
19 *279:48 *1578:addr[1] 0.000153284
20 *279:48 *612:54 0.000154576
21 *1220:B1 *279:48 1.87603e-06
22 *1226:D1 *279:36 6.30765e-05
23 *1448:D *1226:A1 2.4754e-05
24 *68:8 *279:10 5.72953e-05
25 *123:10 *279:48 2.33476e-05
26 *123:33 *279:36 1.34995e-05
27 *123:52 *279:36 4.53056e-05
28 *132:10 *1226:A1 5.70419e-05
29 *132:10 *279:36 2.13733e-05
30 *194:24 *279:48 6.10551e-06
31 *210:24 *279:10 9.41704e-05
*RES
1 *1212:Y *279:10 43.8207 
2 *279:10 *1226:A1 39.595 
3 *1226:A1 *279:36 43.1475 
4 *279:36 *279:48 32.2561 
5 *279:48 *1220:A1 23 
*END

*D_NET *280 0.017398
*CONN
*I *1286:A2 I *D sky130_fd_sc_hd__o21a_2
*I *1287:A2 I *D sky130_fd_sc_hd__o21ai_2
*I *1235:A I *D sky130_fd_sc_hd__nand3_2
*I *1217:A1 I *D sky130_fd_sc_hd__a21oi_2
*I *1271:A1 I *D sky130_fd_sc_hd__o21ba_2
*I *1229:A I *D sky130_fd_sc_hd__and3_2
*I *1279:B I *D sky130_fd_sc_hd__nand2_2
*I *1242:B I *D sky130_fd_sc_hd__and2b_2
*I *1224:A1 I *D sky130_fd_sc_hd__a21oi_2
*I *1223:B I *D sky130_fd_sc_hd__and3_2
*I *1213:Y O *D sky130_fd_sc_hd__nand2_2
*CAP
1 *1286:A2 7.34462e-05
2 *1287:A2 0
3 *1235:A 0.000104558
4 *1217:A1 0
5 *1271:A1 6.5133e-05
6 *1229:A 0
7 *1279:B 0
8 *1242:B 0
9 *1224:A1 0
10 *1223:B 0.000147457
11 *1213:Y 0
12 *280:134 0.000202445
13 *280:110 0.000414887
14 *280:76 0.000811136
15 *280:66 0.000821981
16 *280:62 0.000856753
17 *280:45 0.000277066
18 *280:33 0.00112297
19 *280:31 0.000309333
20 *280:29 0.000374466
21 *280:16 0.000268061
22 *280:14 0.00126059
23 *280:4 0.000958658
24 *1223:B *282:10 3.70094e-05
25 *1223:B *288:15 2.93747e-05
26 *1223:B *474:39 6.86505e-05
27 *1235:A *1217:A2 0.000219407
28 *1235:A *283:24 5.74413e-05
29 *1235:A *283:26 0.000175903
30 *1271:A1 *289:14 2.02872e-05
31 *1286:A2 *381:18 1.86371e-05
32 *1286:A2 *611:25 0.000191843
33 *280:14 *1213:A 5.50106e-05
34 *280:14 *1217:A2 0.000178517
35 *280:14 *1236:B 1.01436e-05
36 *280:14 *284:22 0.00019335
37 *280:14 *299:65 1.38149e-05
38 *280:14 *556:39 0.000201667
39 *280:14 *556:45 2.75404e-05
40 *280:14 *558:87 0.00051329
41 *280:16 *282:10 9.73644e-05
42 *280:16 *284:22 9.86959e-05
43 *280:16 *474:39 1.09358e-05
44 *280:31 *1271:B1_N 9.41704e-05
45 *280:31 *289:14 0.000217123
46 *280:31 *330:10 0.00021677
47 *280:45 *330:22 0.000157275
48 *280:45 *456:103 0.000143278
49 *280:45 *495:26 0.000120907
50 *280:45 *569:81 0.000143278
51 *280:45 *577:43 3.76096e-05
52 *280:45 *624:59 3.33204e-05
53 *280:45 *624:75 0.000171258
54 *280:62 *1109:A 0.000271734
55 *280:62 *1111:A 5.8441e-05
56 *280:62 *294:16 4.95969e-05
57 *280:62 *449:234 4.08664e-05
58 *280:62 *449:242 0.000178227
59 *280:62 *495:26 0.000129118
60 *280:62 *499:10 0.000552499
61 *280:62 *499:14 0.000166981
62 *280:62 *499:20 0.000225616
63 *280:62 *573:8 6.16519e-05
64 *280:66 *621:72 4.44329e-05
65 *280:76 *1111:A 0
66 *280:76 *1243:C_N 0
67 *280:76 *285:26 4.78497e-05
68 *280:76 *300:32 9.65021e-05
69 *280:76 *304:28 5.75005e-05
70 *280:76 *304:36 0.000133324
71 *280:76 *305:10 0.000100069
72 *280:76 *306:32 0.000576451
73 *280:76 *306:55 0.000181817
74 *280:76 *308:10 0
75 *280:76 *569:53 8.50457e-05
76 *280:76 *573:8 4.95487e-06
77 *280:76 *579:39 2.18286e-05
78 *280:76 *621:72 9.65021e-05
79 *280:110 *456:103 0.000157692
80 *280:134 *381:18 0.00015795
81 *280:134 *556:117 0.000108681
82 *280:134 *611:14 1.12487e-05
83 *280:134 *611:25 1.22906e-05
84 *1216:A2 *280:14 0.000107774
85 *1216:C1 *280:14 0.000128527
86 *1242:A_N *280:76 0.000143838
87 *1279:A *280:62 0
88 *1449:D *280:62 1.74843e-05
89 *124:12 *280:45 0.000121571
90 *124:12 *280:62 0.000120806
91 *141:92 *280:110 0.000153362
92 *175:20 *1223:B 0.000184741
93 *175:20 *280:14 0.00020263
94 *175:20 *280:16 0.000231357
95 *189:44 *280:14 2.25809e-05
96 *199:14 *1286:A2 0.000139404
97 *207:14 *280:62 5.99567e-06
98 *207:22 *280:66 5.56279e-05
99 *207:22 *280:76 0.000299123
100 *210:12 *280:62 4.71324e-05
101 *210:24 *1271:A1 0
102 *278:12 *280:62 9.41704e-05
103 *278:12 *280:110 7.01687e-05
*RES
1 *1213:Y *280:4 23 
2 *280:4 *280:14 30.66 
3 *280:14 *280:16 3.31429 
4 *280:16 *1223:B 41.2314 
5 *280:16 *280:29 15 
6 *280:29 *280:31 5.86214 
7 *280:31 *280:33 15 
8 *280:33 *280:45 35.2968 
9 *280:45 *1224:A1 23 
10 *280:33 *280:62 48.7464 
11 *280:62 *280:66 15.6214 
12 *280:66 *280:76 47.1929 
13 *280:76 *1242:B 23 
14 *280:66 *1279:B 23 
15 *280:31 *1229:A 23 
16 *280:29 *1271:A1 24.1186 
17 *280:14 *280:110 49.785 
18 *280:110 *1217:A1 23 
19 *280:110 *1235:A 26.0243 
20 *280:4 *280:134 17.8793 
21 *280:134 *1287:A2 38 
22 *280:134 *1286:A2 40.61 
*END

*D_NET *281 0.00199171
*CONN
*I *1217:A2 I *D sky130_fd_sc_hd__a21oi_2
*I *1235:B I *D sky130_fd_sc_hd__nand3_2
*I *1214:Y O *D sky130_fd_sc_hd__nand4_2
*CAP
1 *1217:A2 0.00030904
2 *1235:B 0
3 *1214:Y 0.000167962
4 *281:12 0.00030904
5 *281:10 0.000167962
6 *1217:A2 *283:24 4.5695e-05
7 *1217:A2 *283:26 4.34876e-05
8 *1217:A2 *283:36 0
9 *1217:A2 *284:8 5.3304e-05
10 *1217:A2 *299:65 2.47815e-05
11 *1217:A2 *301:10 1.32314e-05
12 *281:10 *1235:C 1.05441e-05
13 *281:10 *293:10 0.000311097
14 *281:10 *461:81 9.41566e-05
15 *281:10 *570:55 1.41077e-05
16 *1214:D *281:10 2.93747e-05
17 *1235:A *1217:A2 0.000219407
18 *280:14 *1217:A2 0.000178517
*RES
1 *1214:Y *281:10 42.06 
2 *281:10 *281:12 15 
3 *281:12 *1235:B 23 
4 *281:12 *1217:A2 29.38 
*END

*D_NET *282 0.000934909
*CONN
*I *1271:A2 I *D sky130_fd_sc_hd__o21ba_2
*I *1215:X O *D sky130_fd_sc_hd__o21a_2
*CAP
1 *1271:A2 0
2 *1215:X 0.000238834
3 *282:10 0.000238834
4 *282:10 *293:20 0.000136743
5 *282:10 *474:39 0.000136614
6 *1223:B *282:10 3.70094e-05
7 *278:12 *282:10 4.95081e-05
8 *280:16 *282:10 9.73644e-05
*RES
1 *1215:X *282:10 42.4329 
2 *282:10 *1271:A2 38 
*END

*D_NET *283 0.00964125
*CONN
*I *1217:B1 I *D sky130_fd_sc_hd__a21oi_2
*I *1237:B I *D sky130_fd_sc_hd__or3b_2
*I *1218:B I *D sky130_fd_sc_hd__nor2_2
*I *1243:A I *D sky130_fd_sc_hd__nor3b_2
*I *1245:A1 I *D sky130_fd_sc_hd__o21ba_2
*I *1216:X O *D sky130_fd_sc_hd__o211a_2
*CAP
1 *1217:B1 0
2 *1237:B 0
3 *1218:B 0.000528351
4 *1243:A 0.000531689
5 *1245:A1 7.9574e-05
6 *1216:X 0.000513304
7 *283:81 8.87399e-05
8 *283:45 0.00106004
9 *283:36 0.000578817
10 *283:26 0.000732157
11 *283:24 0.000257592
12 *283:14 0.000626721
13 *1218:B *1110:A 3.47776e-05
14 *1218:B *285:18 1.94812e-05
15 *1218:B *303:10 1.88944e-05
16 *1218:B *499:20 2.2119e-05
17 *1243:A *1243:C_N 0.000268975
18 *1243:A *1246:A1 5.16246e-05
19 *1243:A *1246:A2 6.77351e-05
20 *1243:A *303:10 0.0002056
21 *1243:A *304:10 0.000107218
22 *1243:A *569:67 8.30566e-06
23 *1243:A *570:47 1.4293e-05
24 *1245:A1 *299:20 0.000269428
25 *1245:A1 *569:63 0.000223906
26 *1245:A1 *602:116 2.31591e-05
27 *283:14 *486:20 0
28 *283:14 *556:39 5.3304e-05
29 *283:14 *558:81 4.67998e-05
30 *283:24 *293:10 2.26406e-05
31 *283:24 *299:10 4.05745e-05
32 *283:24 *299:65 2.64616e-05
33 *283:26 *299:10 0.00016585
34 *283:26 *301:10 1.41077e-05
35 *283:36 *1234:C 4.79641e-05
36 *283:36 *1237:A 9.84794e-05
37 *283:36 *1237:C_N 1.14154e-05
38 *283:36 *299:10 0.000286058
39 *283:36 *299:20 0.00054257
40 *283:36 *301:10 3.65917e-05
41 *283:36 *569:63 9.65021e-05
42 *283:36 *602:102 0.000264614
43 *283:81 *299:10 5.3304e-05
44 *283:81 *456:103 2.50707e-05
45 *283:81 *569:81 5.79489e-05
46 *1216:C1 *283:14 5.50049e-05
47 *1216:C1 *283:24 0
48 *1217:A2 *283:24 4.5695e-05
49 *1217:A2 *283:26 4.34876e-05
50 *1217:A2 *283:36 0
51 *1235:A *283:24 5.74413e-05
52 *1235:A *283:26 0.000175903
53 *1242:A_N *1218:B 2.8314e-06
54 *1279:A *1218:B 3.44315e-05
55 *123:10 *1218:B 6.80826e-05
56 *141:71 *1218:B 2.46906e-05
57 *143:24 *1218:B 0.000182729
58 *143:24 *1243:A 2.4982e-06
59 *175:20 *283:24 2.46922e-05
60 *197:76 *283:14 4.45778e-05
61 *277:25 *283:14 0.000278501
62 *278:43 *1218:B 0.000377922
*RES
1 *1216:X *283:14 48.381 
2 *283:14 *283:24 25.3925 
3 *283:24 *283:26 3.48 
4 *283:26 *283:36 13.34 
5 *283:36 *1245:A1 26.0036 
6 *283:36 *283:45 15 
7 *283:45 *1243:A 46.6379 
8 *283:45 *1218:B 48.7921 
9 *283:26 *283:81 31.4707 
10 *283:81 *1237:B 23 
11 *283:24 *1217:B1 23 
*END

*D_NET *284 0.0203089
*CONN
*I *1236:B I *D sky130_fd_sc_hd__or3b_2
*I *1219:C_N I *D sky130_fd_sc_hd__or3b_2
*I *1266:B I *D sky130_fd_sc_hd__nand2_2
*I *1265:B I *D sky130_fd_sc_hd__nor2_2
*I *1220:A2 I *D sky130_fd_sc_hd__a21o_2
*I *1226:A2 I *D sky130_fd_sc_hd__a2111oi_2
*I *1217:Y O *D sky130_fd_sc_hd__a21oi_2
*CAP
1 *1236:B 0.000356012
2 *1219:C_N 2.52923e-05
3 *1266:B 0.000130773
4 *1265:B 0
5 *1220:A2 0.000170561
6 *1226:A2 3.37138e-05
7 *1217:Y 4.99221e-05
8 *284:84 0.000130773
9 *284:82 0.00135751
10 *284:68 0.00149789
11 *284:64 0.00112523
12 *284:35 0.00145553
13 *284:22 0.00138421
14 *284:8 0.0014816
15 *1220:A2 *287:6 0
16 *1226:A2 *449:219 1.05441e-05
17 *1226:A2 *449:234 4.89731e-05
18 *1226:A2 *578:56 5.64492e-05
19 *1236:B *456:103 1.40533e-05
20 *1236:B *474:39 0.000275724
21 *1266:B *1266:A 0.000140927
22 *1266:B *326:10 6.08911e-05
23 *1266:B *490:42 5.61255e-06
24 *1266:B *492:26 0.000228221
25 *284:22 *296:8 0.000142069
26 *284:22 *297:10 0.000114922
27 *284:22 *449:234 0.000360914
28 *284:22 *461:97 4.42495e-05
29 *284:22 *474:39 0.000287511
30 *284:22 *578:56 0.000289115
31 *284:22 *621:72 0.000447677
32 *284:64 *1578:addr[1] 1.0884e-05
33 *284:64 *287:41 0.000211
34 *284:64 *290:49 0.000113633
35 *284:64 *292:8 1.06173e-05
36 *284:64 *306:32 6.3704e-06
37 *284:64 *472:50 0.00012436
38 *284:64 *577:43 0.000658504
39 *284:64 *623:60 5.02825e-05
40 *284:68 *1097:A1 3.44001e-05
41 *284:68 *1219:A 9.65021e-05
42 *284:68 *286:10 8.17328e-05
43 *284:82 *1097:A1 0.000257424
44 *284:82 *286:10 9.41704e-05
45 *284:82 *322:24 0.00040279
46 *284:82 *330:28 9.28078e-06
47 *284:82 *472:50 0.000357149
48 *284:82 *492:26 2.24608e-05
49 *284:82 *504:35 0.000158711
50 *284:82 *505:38 5.50106e-05
51 *284:82 *564:10 0.000221997
52 *284:82 *599:68 2.90698e-05
53 *284:82 *612:54 0.00125996
54 *284:82 *623:28 0.000362338
55 *284:82 *623:60 0.00136724
56 *284:82 *626:28 7.06451e-05
57 *1203:A1 *284:82 0.000146682
58 *1217:A2 *284:8 5.3304e-05
59 *1220:B1 *1220:A2 2.45549e-06
60 *126:12 *284:82 0.000197386
61 *127:28 *284:82 1.40759e-05
62 *132:10 *1220:A2 1.0119e-05
63 *132:10 *284:35 4.38068e-06
64 *132:43 *284:64 8.11914e-06
65 *134:31 *284:64 2.68589e-05
66 *138:8 *1266:B 1.59094e-05
67 *141:49 *284:68 9.41704e-05
68 *141:71 *284:68 0.000137368
69 *142:22 *284:82 3.24898e-05
70 *173:22 *284:22 0.000722248
71 *173:47 *284:22 8.97262e-05
72 *175:20 *1236:B 0.000286508
73 *259:24 *284:64 5.72853e-05
74 *279:36 *1220:A2 1.48514e-05
75 *279:36 *284:35 0.00029938
76 *280:14 *1236:B 1.01436e-05
77 *280:14 *284:22 0.00019335
78 *280:16 *284:22 9.86959e-05
*RES
1 *1217:Y *284:8 38.6214 
2 *284:8 *284:22 30.0983 
3 *284:22 *1226:A2 38.8493 
4 *284:22 *284:35 18.9564 
5 *284:35 *1220:A2 25.0714 
6 *284:35 *284:64 36.7909 
7 *284:64 *284:68 18.0036 
8 *284:68 *284:82 43.1767 
9 *284:82 *284:84 15 
10 *284:84 *1265:B 23 
11 *284:84 *1266:B 26.9979 
12 *284:68 *1219:C_N 23.4971 
13 *284:8 *1236:B 44.5457 
*END

*D_NET *285 0.00494985
*CONN
*I *1250:B I *D sky130_fd_sc_hd__and3_2
*I *1249:A1 I *D sky130_fd_sc_hd__a21oi_2
*I *1218:Y O *D sky130_fd_sc_hd__nor2_2
*CAP
1 *1250:B 2.52923e-05
2 *1249:A1 0
3 *1218:Y 0.000188512
4 *285:36 0.000340215
5 *285:26 0.00119196
6 *285:18 0.00101496
7 *285:18 *290:36 0
8 *285:18 *497:44 8.42719e-05
9 *285:26 *1248:B 0.000177604
10 *285:26 *299:28 0.000282268
11 *285:26 *337:12 9.89258e-05
12 *285:26 *497:44 5.3304e-05
13 *285:26 *579:39 0.000314617
14 *285:26 *621:56 0.000223795
15 *285:26 *621:72 0.000168917
16 *285:36 *1518:A 1.88944e-05
17 *285:36 *299:28 7.53384e-06
18 *285:36 *299:38 2.64616e-05
19 *285:36 *307:18 6.36877e-05
20 *285:36 *311:10 6.17437e-06
21 *285:36 *562:51 8.30566e-06
22 *285:36 *563:12 0.000172071
23 *1218:B *285:18 1.94812e-05
24 *1279:A *285:18 2.44616e-06
25 *177:10 *285:36 5.50106e-05
26 *177:12 *285:36 0.000198514
27 *194:24 *285:18 4.25892e-06
28 *202:22 *285:36 2.07355e-05
29 *207:14 *285:26 5.79559e-05
30 *278:43 *285:18 7.58226e-05
31 *280:76 *285:26 4.78497e-05
*RES
1 *1218:Y *285:18 41.2418 
2 *285:18 *285:26 31.5093 
3 *285:26 *285:36 36.4629 
4 *285:36 *1249:A1 23 
5 *285:26 *1250:B 23.4971 
*END

*D_NET *286 0.00102942
*CONN
*I *1221:B I *D sky130_fd_sc_hd__and3_2
*I *1219:X O *D sky130_fd_sc_hd__or3b_2
*CAP
1 *1221:B 0
2 *1219:X 0.000319556
3 *286:10 0.000319556
4 *286:10 *309:10 2.76611e-06
5 *1108:A1 *286:10 0
6 *67:8 *286:10 3.72639e-05
7 *173:10 *286:10 0.000128628
8 *201:14 *286:10 4.5745e-05
9 *284:68 *286:10 8.17328e-05
10 *284:82 *286:10 9.41704e-05
*RES
1 *1219:X *286:10 43.0129 
2 *286:10 *1221:B 38 
*END

*D_NET *287 0.00510708
*CONN
*I *1225:B1 I *D sky130_fd_sc_hd__o21ai_2
*I *1221:C I *D sky130_fd_sc_hd__and3_2
*I *1220:X O *D sky130_fd_sc_hd__a21o_2
*CAP
1 *1225:B1 1.0388e-05
2 *1221:C 0
3 *1220:X 3.15977e-05
4 *287:41 0.000578773
5 *287:16 0.000889422
6 *287:6 0.00148941
7 *1225:B1 *292:8 1.05441e-05
8 *1225:B1 *292:27 1.20966e-05
9 *287:16 *1526:A 0.000137827
10 *287:16 *306:32 0.00036186
11 *287:16 *449:22 0.000528273
12 *287:16 *579:39 6.69016e-05
13 *287:16 *621:46 0.000157887
14 *287:41 *1578:addr[1] 0.000193535
15 *287:41 *461:97 6.99019e-05
16 *287:41 *577:43 4.51815e-05
17 *287:41 *623:60 1.02995e-05
18 *1220:A2 *287:6 0
19 *1220:B1 *287:41 1.39317e-05
20 *64:30 *287:41 3.57972e-05
21 *123:10 *287:41 1.23661e-05
22 *132:10 *287:16 3.27534e-06
23 *132:10 *287:41 4.96675e-06
24 *141:49 *287:16 5.43589e-05
25 *173:18 *287:16 3.51199e-05
26 *194:24 *287:41 7.30104e-05
27 *259:24 *1225:B1 2.26406e-05
28 *259:24 *287:41 4.67233e-05
29 *284:64 *287:41 0.000211
*RES
1 *1220:X *287:6 23.4971 
2 *287:6 *287:16 44.7693 
3 *287:16 *1221:C 23 
4 *287:6 *287:41 42.5516 
5 *287:41 *1225:B1 46.3211 
*END

*D_NET *288 0.00242928
*CONN
*I *1224:A2 I *D sky130_fd_sc_hd__a21oi_2
*I *1229:B I *D sky130_fd_sc_hd__and3_2
*I *1223:C I *D sky130_fd_sc_hd__and3_2
*I *1222:X O *D sky130_fd_sc_hd__a31o_2
*CAP
1 *1224:A2 0
2 *1229:B 0
3 *1223:C 0
4 *1222:X 0.000335068
5 *288:25 0.000121716
6 *288:15 0.000412944
7 *288:6 0.000626295
8 *288:15 *1223:A 0.000116041
9 *288:15 *290:14 5.25436e-05
10 *288:15 *498:29 5.3304e-05
11 *288:25 *330:10 6.82841e-05
12 *288:25 *495:26 0.000119885
13 *288:25 *569:81 3.6324e-05
14 *1074:A2 *288:6 5.97178e-05
15 *1223:B *288:15 2.93747e-05
16 *141:92 *288:15 0.000218476
17 *200:79 *288:6 0.000179311
*RES
1 *1222:X *288:6 27.4329 
2 *288:6 *1223:C 23 
3 *288:6 *288:15 6.11071 
4 *288:15 *288:25 32.6721 
5 *288:25 *1229:B 23 
6 *288:15 *1224:A2 23 
*END

*D_NET *289 0.00529033
*CONN
*I *1226:B1 I *D sky130_fd_sc_hd__a2111oi_2
*I *1225:A1 I *D sky130_fd_sc_hd__o21ai_2
*I *1232:A I *D sky130_fd_sc_hd__or3_2
*I *1233:A1 I *D sky130_fd_sc_hd__o21ai_2
*I *1223:X O *D sky130_fd_sc_hd__and3_2
*CAP
1 *1226:B1 0
2 *1225:A1 4.3941e-05
3 *1232:A 0
4 *1233:A1 0.000142989
5 *1223:X 0.000132721
6 *289:54 0.000528956
7 *289:35 0.000649121
8 *289:14 0.000453464
9 *289:10 0.00051942
10 *1233:A1 *1232:B 1.56762e-05
11 *1233:A1 *1232:C 5.3304e-05
12 *1233:A1 *1233:A2 5.73288e-05
13 *1233:A1 *621:72 7.51453e-06
14 *289:14 *1271:B1_N 9.58714e-05
15 *289:54 *290:36 9.41704e-05
16 *289:54 *292:8 3.31868e-05
17 *289:54 *292:27 9.43447e-05
18 *289:54 *578:56 0.00024397
19 *1074:A2 *289:10 2.93747e-05
20 *1271:A1 *289:14 2.02872e-05
21 *123:10 *1225:A1 2.79482e-05
22 *123:10 *289:35 2.62559e-05
23 *141:71 *289:54 2.60252e-05
24 *143:10 *289:54 9.41704e-05
25 *143:24 *289:35 5.40715e-05
26 *175:20 *289:10 0.000132912
27 *200:79 *289:10 0
28 *210:24 *1233:A1 9.41704e-05
29 *210:24 *289:14 0.000917647
30 *211:8 *289:10 8.62876e-05
31 *259:24 *1225:A1 5.64492e-05
32 *259:24 *289:35 0.000131425
33 *278:20 *289:14 5.50049e-05
34 *278:43 *1233:A1 4.77222e-05
35 *278:43 *289:14 0.000107476
36 *280:31 *289:14 0.000217123
*RES
1 *1223:X *289:10 40.5271 
2 *289:10 *289:14 25.6264 
3 *289:14 *1233:A1 25.0507 
4 *289:14 *1232:A 23 
5 *1233:A1 *289:35 39.9057 
6 *289:35 *1225:A1 38.8493 
7 *289:35 *289:54 37.7679 
8 *289:54 *1226:B1 38 
*END

*D_NET *290 0.00452223
*CONN
*I *1226:C1 I *D sky130_fd_sc_hd__a2111oi_2
*I *1225:A2 I *D sky130_fd_sc_hd__o21ai_2
*I *1224:Y O *D sky130_fd_sc_hd__a21oi_2
*CAP
1 *1226:C1 0
2 *1225:A2 3.71861e-05
3 *1224:Y 0.000316783
4 *290:49 0.000148723
5 *290:36 0.000380832
6 *290:28 0.000667101
7 *290:14 0.000788962
8 *290:14 *495:26 5.43589e-05
9 *290:14 *498:16 0.000114327
10 *290:28 *330:22 0.000502429
11 *290:28 *473:65 0.000136871
12 *290:28 *578:56 0.000240201
13 *290:28 *624:59 9.54602e-05
14 *290:36 *497:44 0
15 *122:8 *290:14 1.05441e-05
16 *123:10 *290:49 0.000200746
17 *124:12 *290:14 0.000127134
18 *141:71 *1225:A2 2.64616e-05
19 *141:71 *290:36 6.95327e-05
20 *141:92 *290:14 9.78729e-06
21 *141:92 *290:28 0.000116021
22 *143:10 *290:36 3.24898e-05
23 *259:24 *290:36 9.07097e-05
24 *259:24 *290:49 4.15283e-06
25 *279:10 *290:28 6.77187e-05
26 *279:36 *290:49 2.33476e-05
27 *284:64 *290:49 0.000113633
28 *285:18 *290:36 0
29 *288:15 *290:14 5.25436e-05
30 *289:54 *290:36 9.41704e-05
*RES
1 *1224:Y *290:14 43.4271 
2 *290:14 *290:28 49.6002 
3 *290:28 *290:36 18.8011 
4 *290:36 *1225:A2 23.6214 
5 *290:36 *290:49 32.9621 
6 *290:49 *1226:C1 23 
*END

*D_NET *291 0.000700659
*CONN
*I *1227:C I *D sky130_fd_sc_hd__and3b_2
*I *1225:Y O *D sky130_fd_sc_hd__o21ai_2
*CAP
1 *1227:C 0.000237505
2 *1225:Y 0.000237505
3 *141:71 *1227:C 0.000225649
*RES
1 *1225:Y *1227:C 49.5473 
*END

*D_NET *292 0.00180103
*CONN
*I *1232:B I *D sky130_fd_sc_hd__or3_2
*I *1233:A2 I *D sky130_fd_sc_hd__o21ai_2
*I *1227:A_N I *D sky130_fd_sc_hd__and3b_2
*I *1226:Y O *D sky130_fd_sc_hd__a2111oi_2
*CAP
1 *1232:B 7.7067e-05
2 *1233:A2 0.000113543
3 *1227:A_N 0
4 *1226:Y 0.000184972
5 *292:27 0.000433068
6 *292:8 0.00042743
7 *1233:A2 *621:72 3.29546e-05
8 *292:27 *578:56 2.4917e-05
9 *1225:B1 *292:8 1.05441e-05
10 *1225:B1 *292:27 1.20966e-05
11 *1233:A1 *1232:B 1.56762e-05
12 *1233:A1 *1233:A2 5.73288e-05
13 *143:10 *292:27 9.9437e-05
14 *143:24 *1233:A2 9.77405e-05
15 *210:24 *1232:B 5.50049e-05
16 *210:24 *292:27 0
17 *259:24 *292:8 1.33995e-05
18 *259:24 *292:27 2.12347e-06
19 *279:36 *292:8 5.58152e-06
20 *284:64 *292:8 1.06173e-05
21 *289:54 *292:8 3.31868e-05
22 *289:54 *292:27 9.43447e-05
*RES
1 *1226:Y *292:8 40.61 
2 *292:8 *1227:A_N 38 
3 *292:8 *292:27 19.1429 
4 *292:27 *1233:A2 25.9207 
5 *292:27 *1232:B 24.0979 
*END

*D_NET *293 0.00619777
*CONN
*I *1235:C I *D sky130_fd_sc_hd__nand3_2
*I *1236:C_N I *D sky130_fd_sc_hd__or3b_2
*I *1229:C I *D sky130_fd_sc_hd__and3_2
*I *1228:Y O *D sky130_fd_sc_hd__nand2_2
*CAP
1 *1235:C 6.78876e-05
2 *1236:C_N 0.000420888
3 *1229:C 6.78768e-05
4 *1228:Y 0.000471872
5 *293:20 0.000916819
6 *293:10 0.000967814
7 *1229:C *330:10 1.05441e-05
8 *1229:C *495:26 0.000107909
9 *1229:C *569:81 5.95642e-05
10 *1235:C *461:81 5.15937e-05
11 *1236:C_N *1009:A 3.21414e-05
12 *1236:C_N *1237:A 2.33548e-05
13 *1236:C_N *456:103 0
14 *1236:C_N *495:26 0.000407821
15 *1236:C_N *569:81 0.000513807
16 *293:10 *1035:A 1.05658e-05
17 *293:10 *461:81 7.75329e-06
18 *293:10 *570:55 8.06804e-06
19 *293:20 *461:81 0
20 *293:20 *499:10 0.00021677
21 *1214:C *293:10 0.00035673
22 *1214:D *293:10 2.06822e-05
23 *1236:A *1236:C_N 9.84794e-05
24 *175:20 *1236:C_N 5.41288e-05
25 *175:20 *293:10 8.83864e-05
26 *175:20 *293:20 0.000223655
27 *179:66 *293:20 0
28 *278:12 *293:20 0.000511632
29 *281:10 *1235:C 1.05441e-05
30 *281:10 *293:10 0.000311097
31 *282:10 *293:20 0.000136743
32 *283:24 *293:10 2.26406e-05
*RES
1 *1228:Y *293:10 48.1811 
2 *293:10 *293:20 39.6218 
3 *293:20 *1229:C 39.5536 
4 *293:20 *1236:C_N 48.0464 
5 *293:10 *1235:C 39.7711 
*END

*D_NET *294 0.00367249
*CONN
*I *1271:B1_N I *D sky130_fd_sc_hd__o21ba_2
*I *1231:B I *D sky130_fd_sc_hd__xnor2_2
*I *1230:A_N I *D sky130_fd_sc_hd__nand2b_2
*I *1229:X O *D sky130_fd_sc_hd__and3_2
*CAP
1 *1271:B1_N 3.69794e-05
2 *1231:B 0
3 *1230:A_N 0
4 *1229:X 0
5 *294:22 0.000139073
6 *294:16 0.00113365
7 *294:4 0.00103156
8 *294:16 *449:234 1.59094e-05
9 *294:16 *449:242 5.25011e-05
10 *294:16 *456:103 0.000248465
11 *294:16 *499:14 0.000136738
12 *294:16 *569:81 0.000180292
13 *294:22 *1230:B 2.44374e-05
14 *294:22 *295:12 8.69806e-05
15 *1449:D *294:16 4.9054e-06
16 *70:10 *294:22 8.4824e-05
17 *143:24 *294:22 4.97266e-05
18 *210:12 *294:16 9.67842e-05
19 *210:24 *294:22 1.17256e-05
20 *278:12 *294:16 9.82887e-05
21 *280:31 *1271:B1_N 9.41704e-05
22 *280:62 *294:16 4.95969e-05
23 *289:14 *1271:B1_N 9.58714e-05
*RES
1 *1229:X *294:4 23 
2 *294:4 *294:16 44.8107 
3 *294:16 *294:22 32.9621 
4 *294:22 *1230:A_N 23 
5 *294:16 *1231:B 23 
6 *294:4 *1271:B1_N 24.0979 
*END

*D_NET *295 0.00243162
*CONN
*I *1240:A1 I *D sky130_fd_sc_hd__a21o_2
*I *1239:A I *D sky130_fd_sc_hd__nand3_2
*I *1230:Y O *D sky130_fd_sc_hd__nand2b_2
*CAP
1 *1240:A1 0.000285421
2 *1239:A 0.000118605
3 *1230:Y 0.000256415
4 *295:12 0.00066044
5 *1239:A *1239:B 2.08777e-05
6 *1239:A *303:10 2.64616e-05
7 *1239:A *570:47 0.000265466
8 *1240:A1 *1077:A 1.4471e-05
9 *1240:A1 *1239:C 4.77991e-05
10 *1240:A1 *1240:A2 2.55769e-05
11 *1240:A1 *1240:B1 0.000156364
12 *295:12 *1230:B 2.73782e-05
13 *295:12 *1239:C 3.5471e-05
14 *295:12 *1240:A2 6.72184e-06
15 *295:12 *449:242 7.128e-05
16 uio_out[6] *1240:A1 7.76364e-06
17 *1450:D *1239:A 7.59794e-05
18 *70:10 *295:12 5.99934e-05
19 *176:58 *1240:A1 9.5877e-05
20 *178:8 *1240:A1 8.62783e-05
21 *294:22 *295:12 8.69806e-05
*RES
1 *1230:Y *295:12 42.785 
2 *295:12 *1239:A 41.5007 
3 *295:12 *1240:A1 42.7643 
*END

*D_NET *296 0.000771673
*CONN
*I *1233:B1 I *D sky130_fd_sc_hd__o21ai_2
*I *1232:C I *D sky130_fd_sc_hd__or3_2
*I *1231:Y O *D sky130_fd_sc_hd__xnor2_2
*CAP
1 *1233:B1 0
2 *1232:C 4.40838e-05
3 *1231:Y 0.000122332
4 *296:10 4.40838e-05
5 *296:8 0.000122332
6 *296:8 *297:10 1.7123e-05
7 *296:8 *298:8 0.000179716
8 *1233:A1 *1232:C 5.3304e-05
9 *278:43 *1232:C 4.66283e-05
10 *284:22 *296:8 0.000142069
*RES
1 *1231:Y *296:8 40.61 
2 *296:8 *296:10 15 
3 *296:10 *1232:C 24.1186 
4 *296:10 *1233:B1 23 
*END

*D_NET *297 0.00113502
*CONN
*I *1234:B I *D sky130_fd_sc_hd__and3_2
*I *1232:X O *D sky130_fd_sc_hd__or3_2
*CAP
1 *1234:B 0
2 *1232:X 0.000326351
3 *297:10 0.000326351
4 *297:10 *298:8 2.61014e-05
5 *297:10 *449:234 0.000126192
6 *297:10 *602:94 5.86334e-05
7 *278:43 *297:10 0.000139352
8 *284:22 *297:10 0.000114922
9 *296:8 *297:10 1.7123e-05
*RES
1 *1232:X *297:10 43.5929 
2 *297:10 *1234:B 38 
*END

*D_NET *298 0.00349778
*CONN
*I *1240:A2 I *D sky130_fd_sc_hd__a21o_2
*I *1239:B I *D sky130_fd_sc_hd__nand3_2
*I *1234:C I *D sky130_fd_sc_hd__and3_2
*I *1233:Y O *D sky130_fd_sc_hd__o21ai_2
*CAP
1 *1240:A2 0.000355794
2 *1239:B 0.000288149
3 *1234:C 0.000105889
4 *1233:Y 0.000271883
5 *298:19 0.000706218
6 *298:8 0.000440047
7 *1234:C *602:102 5.3304e-05
8 *1240:A2 *449:242 4.7803e-05
9 *1240:A2 *473:65 0
10 *298:8 *449:242 0.000283039
11 *298:8 *499:10 2.24973e-05
12 *298:8 *602:94 7.49001e-05
13 *298:8 *621:72 4.30894e-05
14 *298:19 *449:242 7.48331e-05
15 uio_out[6] *1240:A2 5.94125e-05
16 *1079:A2 *1240:A2 5.3304e-05
17 *1239:A *1239:B 2.08777e-05
18 *1240:A1 *1240:A2 2.55769e-05
19 *1450:D *1239:B 0.000262864
20 *176:58 *1240:A2 3.27248e-05
21 *210:24 *298:8 1.50741e-05
22 *283:36 *1234:C 4.79641e-05
23 *295:12 *1240:A2 6.72184e-06
24 *296:8 *298:8 0.000179716
25 *297:10 *298:8 2.61014e-05
*RES
1 *1233:Y *298:8 44.1314 
2 *298:8 *1234:C 39.5743 
3 *298:8 *298:19 1.20143 
4 *298:19 *1239:B 42.3293 
5 *298:19 *1240:A2 43.4064 
*END

*D_NET *299 0.012619
*CONN
*I *1257:B1 I *D sky130_fd_sc_hd__a32o_2
*I *1237:C_N I *D sky130_fd_sc_hd__or3b_2
*I *1250:C I *D sky130_fd_sc_hd__and3_2
*I *1249:A2 I *D sky130_fd_sc_hd__a21oi_2
*I *1235:Y O *D sky130_fd_sc_hd__nand3_2
*CAP
1 *1257:B1 0
2 *1237:C_N 2.0995e-05
3 *1250:C 0
4 *1249:A2 0
5 *1235:Y 0
6 *299:65 0.000873769
7 *299:38 0.000402817
8 *299:28 0.000614109
9 *299:20 0.00133732
10 *299:10 0.00169996
11 *299:4 0.0014267
12 *299:20 *1109:B 8.18131e-05
13 *299:20 *1112:A 0.000147319
14 *299:20 *309:10 7.0833e-05
15 *299:20 *569:53 0.000354737
16 *299:20 *574:41 1.51076e-05
17 *299:20 *579:39 4.97925e-05
18 *299:20 *602:94 0.000101099
19 *299:20 *602:116 0.000537407
20 *299:28 *1221:A 0.000295601
21 *299:28 *307:18 1.00493e-05
22 *299:28 *599:68 9.58714e-05
23 *299:38 *310:35 0.000341983
24 *299:38 *311:10 1.61361e-05
25 *299:38 *314:39 0.000200604
26 *299:38 *449:190 0
27 *299:38 *599:68 6.07611e-06
28 *299:65 *1257:B2 0.000117217
29 *299:65 *570:55 3.33677e-05
30 *299:65 *596:85 3.3607e-05
31 *299:65 *621:74 7.5366e-05
32 *1216:C1 *299:65 0.000387034
33 *1217:A2 *299:65 2.47815e-05
34 *1245:A1 *299:20 0.000269428
35 *1256:B *299:65 0.000148517
36 *69:10 *299:20 5.3304e-05
37 *70:10 *299:20 0.000138607
38 *141:18 *299:20 0.000213012
39 *189:76 *299:65 0.000159785
40 *197:61 *299:65 0.000239243
41 *197:76 *299:65 4.99753e-06
42 *202:22 *299:28 4.95081e-05
43 *202:22 *299:38 2.61014e-05
44 *203:16 *299:38 5.43589e-05
45 *204:24 *299:20 0.000213031
46 *204:24 *299:38 3.22019e-05
47 *209:10 *299:20 0.000177848
48 *277:8 *299:65 1.12695e-05
49 *280:14 *299:65 1.38149e-05
50 *283:24 *299:10 4.05745e-05
51 *283:24 *299:65 2.64616e-05
52 *283:26 *299:10 0.00016585
53 *283:36 *1237:C_N 1.14154e-05
54 *283:36 *299:10 0.000286058
55 *283:36 *299:20 0.00054257
56 *283:81 *299:10 5.3304e-05
57 *285:26 *299:28 0.000282268
58 *285:36 *299:28 7.53384e-06
59 *285:36 *299:38 2.64616e-05
*RES
1 *1235:Y *299:4 23 
2 *299:4 *299:10 8.41 
3 *299:10 *299:20 41.1 
4 *299:20 *299:28 21.8564 
5 *299:28 *299:38 37.4157 
6 *299:38 *1249:A2 23 
7 *299:28 *1250:C 23 
8 *299:10 *1237:C_N 23.4971 
9 *299:4 *299:65 44.7796 
10 *299:65 *1257:B1 23 
*END

*D_NET *300 0.00621079
*CONN
*I *1238:A I *D sky130_fd_sc_hd__nand2_2
*I *1247:A1 I *D sky130_fd_sc_hd__a211o_2
*I *1246:B1 I *D sky130_fd_sc_hd__o211ai_2
*I *1236:X O *D sky130_fd_sc_hd__or3b_2
*CAP
1 *1238:A 0
2 *1247:A1 0
3 *1246:B1 0
4 *1236:X 0
5 *300:50 0.00031361
6 *300:32 0.00027754
7 *300:22 0.000414239
8 *300:16 0.00115985
9 *300:4 0.00133676
10 *300:16 *318:14 0.000485452
11 *300:16 *459:22 0.000228903
12 *300:16 *459:35 9.45591e-05
13 *300:16 *473:51 0.000303898
14 *300:16 *473:65 0
15 *300:22 *304:36 1.12863e-05
16 *300:22 *306:55 4.20633e-05
17 *300:22 *318:32 7.57281e-06
18 *300:22 *575:57 9.28078e-06
19 *300:32 *1436:RESET_B 4.96717e-05
20 *300:32 *304:28 4.0578e-05
21 *300:32 *306:55 2.812e-05
22 *300:32 *310:10 9.17998e-05
23 *300:32 *602:116 0.000212742
24 *300:50 *456:103 0.000239555
25 *1437:D *300:16 0.000188938
26 *173:47 *300:50 0.00013443
27 *173:66 *300:32 0.000210501
28 *175:20 *300:50 0.000230818
29 *176:58 *300:22 2.12347e-06
30 *280:76 *300:32 9.65021e-05
*RES
1 *1236:X *300:4 23 
2 *300:4 *300:16 49.0157 
3 *300:16 *300:22 31.9057 
4 *300:22 *300:32 36.9393 
5 *300:32 *1246:B1 23 
6 *300:22 *1247:A1 23 
7 *300:4 *300:50 36.5457 
8 *300:50 *1238:A 23 
*END

*D_NET *301 0.000963844
*CONN
*I *1238:B I *D sky130_fd_sc_hd__nand2_2
*I *1237:X O *D sky130_fd_sc_hd__or3b_2
*CAP
1 *1238:B 0
2 *1237:X 0.000326119
3 *301:10 0.000326119
4 *301:10 *1237:A 5.12254e-05
5 *301:10 *456:103 0.000134984
6 *301:10 *569:81 6.14647e-05
7 *1217:A2 *301:10 1.32314e-05
8 *283:26 *301:10 1.41077e-05
9 *283:36 *301:10 3.65917e-05
*RES
1 *1237:X *301:10 42.9093 
2 *301:10 *1238:B 38 
*END

*D_NET *302 0.00265848
*CONN
*I *1240:B1 I *D sky130_fd_sc_hd__a21o_2
*I *1239:C I *D sky130_fd_sc_hd__nand3_2
*I *1238:Y O *D sky130_fd_sc_hd__nand2_2
*CAP
1 *1240:B1 0.000125136
2 *1239:C 6.16765e-05
3 *1238:Y 0.000653867
4 *302:12 0.00084068
5 *1239:C *569:67 0
6 *1240:B1 *1077:A 2.74987e-05
7 *1240:B1 *569:67 0
8 *1240:B1 *569:81 4.15847e-05
9 *302:12 *500:8 0.000181125
10 *302:12 *570:47 0.000368424
11 *302:12 *570:55 3.90836e-05
12 *1240:A1 *1239:C 4.77991e-05
13 *1240:A1 *1240:B1 0.000156364
14 *36:8 *1240:B1 2.64616e-05
15 *176:58 *1240:B1 5.3304e-05
16 *295:12 *1239:C 3.5471e-05
*RES
1 *1238:Y *302:12 48.7921 
2 *302:12 *1239:C 39.2014 
3 *302:12 *1240:B1 40.8793 
*END

*D_NET *303 0.000996102
*CONN
*I *1241:B I *D sky130_fd_sc_hd__and3_2
*I *1239:Y O *D sky130_fd_sc_hd__nand3_2
*CAP
1 *1241:B 0
2 *1239:Y 0.000240029
3 *303:10 0.000240029
4 *303:10 *304:10 9.18156e-06
5 *303:10 *570:47 2.812e-05
6 *1218:B *303:10 1.88944e-05
7 *1239:A *303:10 2.64616e-05
8 *1242:A_N *303:10 0.000227787
9 *1243:A *303:10 0.0002056
*RES
1 *1239:Y *303:10 42.8886 
2 *303:10 *1241:B 38 
*END

*D_NET *304 0.0045901
*CONN
*I *1247:A2 I *D sky130_fd_sc_hd__a211o_2
*I *1246:C1 I *D sky130_fd_sc_hd__o211ai_2
*I *1241:C I *D sky130_fd_sc_hd__and3_2
*I *1240:X O *D sky130_fd_sc_hd__a21o_2
*CAP
1 *1247:A2 0
2 *1246:C1 0
3 *1241:C 3.72642e-05
4 *1240:X 0.000612043
5 *304:36 0.000353501
6 *304:28 0.000616094
7 *304:10 0.000386714
8 *1241:C *569:63 9.65021e-05
9 *1241:C *602:102 9.41704e-05
10 *304:10 *569:67 0.000305886
11 *304:28 *306:55 0.000140931
12 *304:36 *1246:A2 0.000137368
13 *304:36 *1247:C1 0
14 *304:36 *306:55 2.21151e-05
15 *304:36 *309:10 1.40958e-05
16 *304:36 *310:14 6.17437e-06
17 *304:36 *570:47 0.000382849
18 *1242:A_N *304:10 2.86544e-05
19 *1242:A_N *304:28 0.000149246
20 *1243:A *304:10 0.000107218
21 *22:10 *304:10 3.56604e-05
22 *36:8 *304:10 0.000139357
23 *36:8 *304:28 4.9346e-05
24 *176:58 *304:28 0.000623038
25 *280:76 *304:28 5.75005e-05
26 *280:76 *304:36 0.000133324
27 *300:22 *304:36 1.12863e-05
28 *300:32 *304:28 4.0578e-05
29 *303:10 *304:10 9.18156e-06
*RES
1 *1240:X *304:10 44.4214 
2 *304:10 *1241:C 39.0979 
3 *1240:X *304:28 32.2179 
4 *304:28 *304:36 37.0429 
5 *304:36 *1246:C1 23 
6 *304:28 *1247:A2 23 
*END

*D_NET *305 0.0016
*CONN
*I *1243:B I *D sky130_fd_sc_hd__nor3b_2
*I *1245:A2 I *D sky130_fd_sc_hd__o21ba_2
*I *1242:X O *D sky130_fd_sc_hd__and2b_2
*CAP
1 *1243:B 2.79288e-05
2 *1245:A2 0.000211834
3 *1242:X 0.000278615
4 *305:10 0.000518378
5 *1243:B *1243:C_N 5.3304e-05
6 *1243:B *1246:A2 1.24376e-05
7 *1243:B *570:47 1.46594e-05
8 *1245:A2 *1111:A 3.15923e-05
9 *1245:A2 *1243:C_N 8.93979e-06
10 *1245:A2 *308:10 0.000129751
11 *1245:A2 *569:63 2.75733e-06
12 *305:10 *1247:C1 0.000109447
13 *305:10 *308:10 5.09087e-05
14 *1242:A_N *1245:A2 0
15 *1242:A_N *305:10 4.93812e-05
16 *280:76 *305:10 0.000100069
*RES
1 *1242:X *305:10 42.3086 
2 *305:10 *1245:A2 41.3764 
3 *305:10 *1243:B 38.6214 
*END

*D_NET *306 0.00771942
*CONN
*I *1247:B1 I *D sky130_fd_sc_hd__a211o_2
*I *1244:A I *D sky130_fd_sc_hd__inv_2
*I *1246:A1 I *D sky130_fd_sc_hd__o211ai_2
*I *1243:Y O *D sky130_fd_sc_hd__nor3b_2
*CAP
1 *1247:B1 0
2 *1244:A 0
3 *1246:A1 0.000103115
4 *1243:Y 6.51026e-05
5 *306:55 0.000370847
6 *306:40 0.000260434
7 *306:32 0.00153724
8 *306:22 0.00168566
9 *1246:A1 *1246:A2 4.93812e-05
10 *306:22 *1246:A2 5.3304e-05
11 *306:32 *1283:B 5.50106e-05
12 *306:32 *330:22 0
13 *306:32 *449:22 6.43861e-05
14 *306:32 *449:26 6.53382e-05
15 *306:32 *497:8 0
16 *306:32 *562:36 0.000219383
17 *306:32 *573:18 0.000230352
18 *306:32 *573:47 0.000140377
19 *306:32 *621:46 1.1709e-05
20 *306:32 *621:56 1.1997e-05
21 *306:32 *623:60 4.02018e-05
22 *306:32 *630:44 4.67227e-05
23 *306:40 *1282:A1 0.000219383
24 *306:40 *336:17 5.81396e-05
25 *306:40 *338:22 9.28078e-06
26 *306:40 *339:8 0.000144515
27 *306:40 *340:10 6.48923e-05
28 *306:40 *456:214 1.21972e-05
29 *306:40 *564:37 0.000156604
30 *306:55 *1247:C1 5.58975e-06
31 *306:55 *573:47 0.000277107
32 *1243:A *1246:A1 5.16246e-05
33 *1447:D *306:32 7.10068e-06
34 *22:10 *306:55 0
35 *76:10 *306:32 0.000175903
36 *132:30 *306:32 0.000100363
37 *173:18 *306:32 3.95946e-05
38 *176:58 *306:55 9.28078e-06
39 *209:10 *306:32 1.75524e-05
40 *280:76 *306:32 0.000576451
41 *280:76 *306:55 0.000181817
42 *284:64 *306:32 6.3704e-06
43 *287:16 *306:32 0.00036186
44 *300:22 *306:55 4.20633e-05
45 *300:32 *306:55 2.812e-05
46 *304:28 *306:55 0.000140931
47 *304:36 *306:55 2.21151e-05
*RES
1 *1243:Y *1246:A1 47.595 
2 *1246:A1 *306:22 38.6214 
3 *306:22 *306:32 38.345 
4 *306:32 *306:40 35.6136 
5 *306:40 *1244:A 23 
6 *306:22 *306:55 37.395 
7 *306:55 *1247:B1 38 
*END

*D_NET *307 0.00981866
*CONN
*I *1261:A1 I *D sky130_fd_sc_hd__a31o_2
*I *1263:A1 I *D sky130_fd_sc_hd__a311o_2
*I *1253:A1 I *D sky130_fd_sc_hd__a21o_2
*I *1254:A I *D sky130_fd_sc_hd__and3_2
*I *1244:Y O *D sky130_fd_sc_hd__inv_2
*CAP
1 *1261:A1 2.91828e-05
2 *1263:A1 0.000174427
3 *1253:A1 0
4 *1254:A 8.85322e-05
5 *1244:Y 0.000502144
6 *307:53 0.000670819
7 *307:32 0.000958734
8 *307:28 0.000683649
9 *307:18 0.000639628
10 *307:10 0.000802751
11 *1254:A *310:60 2.5343e-05
12 *1254:A *571:56 1.34542e-05
13 *1263:A1 *310:47 0.000184139
14 *1263:A1 *321:33 1.30202e-06
15 *1263:A1 *333:31 0.000216333
16 *1263:A1 *577:10 5.96346e-06
17 *307:10 *1274:A 0.000161527
18 *307:10 *1281:A 8.04857e-05
19 *307:10 *312:8 0
20 *307:10 *330:38 1.05984e-05
21 *307:10 *331:8 0.000144297
22 *307:10 *505:38 6.69637e-06
23 *307:10 *562:28 0.000248007
24 *307:10 *562:51 0.000389129
25 *307:10 *564:37 5.3304e-05
26 *307:18 *1076:A_N 9.41704e-05
27 *307:18 *311:16 4.5051e-05
28 *307:28 *311:16 0.000253986
29 *307:28 *311:34 0.000109928
30 *307:28 *313:26 0.000305425
31 *307:28 *321:33 7.08416e-05
32 *307:28 *333:31 0.000214158
33 *307:28 *577:10 1.02032e-05
34 *307:32 *624:59 0.000190628
35 *307:53 *309:10 1.43747e-05
36 *307:53 *310:22 5.06677e-05
37 *307:53 *624:59 5.1254e-05
38 uio_oe[6] *307:53 0.00028266
39 *64:30 *307:53 0.000296646
40 *71:10 *307:53 0.000195952
41 *177:10 *307:18 6.53382e-05
42 *202:22 *307:18 0.0003107
43 *259:24 *307:53 0.00085997
44 *275:14 *307:32 0.000196562
45 *275:14 *307:53 3.59647e-05
46 *285:36 *307:18 6.36877e-05
47 *299:28 *307:18 1.00493e-05
*RES
1 *1244:Y *307:10 47.9221 
2 *307:10 *307:18 21.38 
3 *307:18 *307:28 23.2132 
4 *307:28 *307:32 8.74293 
5 *307:32 *1254:A 46.504 
6 *307:32 *307:53 29.4919 
7 *307:53 *1253:A1 23 
8 *307:28 *1263:A1 41.1382 
9 *307:18 *1261:A1 23.4971 
*END

*D_NET *308 0.00228158
*CONN
*I *1247:C1 I *D sky130_fd_sc_hd__a211o_2
*I *1246:A2 I *D sky130_fd_sc_hd__o211ai_2
*I *1245:X O *D sky130_fd_sc_hd__o21ba_2
*CAP
1 *1247:C1 0.000197456
2 *1246:A2 0.000175317
3 *1245:X 0.000273001
4 *308:10 0.000645775
5 *1246:A2 *1243:C_N 2.02872e-05
6 *1246:A2 *570:47 0.000131997
7 *308:10 *1243:C_N 0.000105995
8 *308:10 *501:26 0.000100061
9 *308:10 *602:116 1.5769e-05
10 *1243:A *1246:A2 6.77351e-05
11 *1243:B *1246:A2 1.24376e-05
12 *1245:A2 *308:10 0.000129751
13 *1246:A1 *1246:A2 4.93812e-05
14 *22:10 *1247:C1 0
15 *280:76 *308:10 0
16 *304:36 *1246:A2 0.000137368
17 *304:36 *1247:C1 0
18 *305:10 *1247:C1 0.000109447
19 *305:10 *308:10 5.09087e-05
20 *306:22 *1246:A2 5.3304e-05
21 *306:55 *1247:C1 5.58975e-06
*RES
1 *1245:X *308:10 42.1843 
2 *308:10 *1246:A2 42.9507 
3 *308:10 *1247:C1 41.2314 
*END

*D_NET *309 0.00272948
*CONN
*I *1248:B I *D sky130_fd_sc_hd__and3_2
*I *1246:Y O *D sky130_fd_sc_hd__o211ai_2
*CAP
1 *1248:B 0.00015404
2 *1246:Y 0.000536854
3 *309:10 0.000690894
4 *309:10 *310:14 0.000139352
5 *309:10 *579:39 1.34308e-05
6 uio_oe[6] *309:10 0.000308267
7 *1108:A1 *309:10 0.000249287
8 *71:10 *309:10 4.62166e-06
9 *141:28 *309:10 0
10 *204:24 *309:10 0.000353064
11 *285:26 *1248:B 0.000177604
12 *286:10 *309:10 2.76611e-06
13 *299:20 *309:10 7.0833e-05
14 *304:36 *309:10 1.40958e-05
15 *307:53 *309:10 1.43747e-05
*RES
1 *1246:Y *309:10 48.9993 
2 *309:10 *1248:B 40.0507 
*END

*D_NET *310 0.0077468
*CONN
*I *1253:A2 I *D sky130_fd_sc_hd__a21o_2
*I *1254:B I *D sky130_fd_sc_hd__and3_2
*I *1261:A2 I *D sky130_fd_sc_hd__a31o_2
*I *1263:A2 I *D sky130_fd_sc_hd__a311o_2
*I *1248:C I *D sky130_fd_sc_hd__and3_2
*I *1247:X O *D sky130_fd_sc_hd__a211o_2
*CAP
1 *1253:A2 0
2 *1254:B 0
3 *1261:A2 0
4 *1263:A2 0
5 *1248:C 0.000158945
6 *1247:X 0.000409151
7 *310:60 0.000216821
8 *310:47 0.000382185
9 *310:37 0.000656043
10 *310:35 0.000752018
11 *310:22 0.0012011
12 *310:14 0.000414195
13 *310:10 0.000476167
14 *1248:C *449:190 7.74688e-05
15 *310:10 *1436:RESET_B 1.49083e-05
16 *310:10 *502:34 0.000105268
17 *310:10 *574:41 4.60157e-05
18 *310:10 *575:49 6.92184e-05
19 *310:10 *602:116 1.31913e-05
20 *310:10 *602:126 3.37484e-06
21 *310:14 *502:34 4.5051e-05
22 *310:14 *567:37 5.50106e-05
23 *310:14 *570:47 1.03836e-05
24 *310:22 *1452:CLK 6.01917e-05
25 *310:22 *449:190 5.68329e-05
26 *310:22 *567:37 9.84794e-05
27 *310:22 *573:28 5.58534e-05
28 *310:35 *311:10 8.78733e-06
29 *310:35 *569:45 0.000137651
30 *310:37 *1254:C 2.92911e-06
31 *310:47 *1254:C 9.88574e-06
32 *310:47 *321:33 0.000110509
33 *310:47 *571:56 2.13733e-05
34 *310:47 *577:10 2.9131e-05
35 *310:60 *1254:C 3.062e-05
36 *310:60 *503:50 0.000206699
37 *310:60 *571:56 1.43784e-05
38 uio_oe[6] *310:22 1.09111e-05
39 *1254:A *310:60 2.5343e-05
40 *1263:A1 *310:47 0.000184139
41 *71:10 *1248:C 0.000196104
42 *71:10 *310:22 0.000160591
43 *129:24 *310:47 0.000218471
44 *130:40 *310:47 5.51815e-05
45 *130:40 *310:60 5.80848e-05
46 *204:24 *310:10 1.98354e-05
47 *204:24 *310:35 6.07175e-05
48 *274:10 *310:47 0.00017761
49 *299:38 *310:35 0.000341983
50 *300:32 *310:10 9.17998e-05
51 *304:36 *310:14 6.17437e-06
52 *307:53 *310:22 5.06677e-05
53 *309:10 *310:14 0.000139352
*RES
1 *1247:X *310:10 43.7379 
2 *310:10 *310:14 17.0507 
3 *310:14 *310:22 21.4421 
4 *310:22 *1248:C 40.9621 
5 *310:22 *310:35 23.7207 
6 *310:35 *310:37 0.621429 
7 *310:37 *310:47 38.0164 
8 *310:47 *1263:A2 23 
9 *310:37 *310:60 33.5836 
10 *310:60 *1261:A2 23 
11 *310:35 *1254:B 23 
12 *310:14 *1253:A2 23 
*END

*D_NET *311 0.00844386
*CONN
*I *1261:B1 I *D sky130_fd_sc_hd__a31o_2
*I *1263:C1 I *D sky130_fd_sc_hd__a311o_2
*I *1252:A I *D sky130_fd_sc_hd__or2_2
*I *1249:Y O *D sky130_fd_sc_hd__a21oi_2
*CAP
1 *1261:B1 0
2 *1263:C1 0
3 *1252:A 0
4 *1249:Y 0.000333504
5 *311:47 0.000276326
6 *311:34 0.00186535
7 *311:16 0.00228937
8 *311:12 0.000147696
9 *311:10 0.000333504
10 *311:10 *503:50 0.000126993
11 *311:16 *503:6 0.000111933
12 *311:16 *503:50 5.12254e-05
13 *311:34 *1032:B1 3.61244e-05
14 *311:34 *1443:RESET_B 0.000115445
15 *311:34 *1453:CLK 7.13507e-05
16 *311:34 *1531:A 8.62044e-05
17 *311:34 *313:26 6.59263e-05
18 *311:34 *321:33 1.57316e-05
19 *311:34 *323:22 9.64122e-05
20 *311:34 *493:6 2.95905e-05
21 *311:34 *503:6 2.93845e-05
22 *311:34 *624:45 0.000261951
23 *311:47 *320:12 0.000421259
24 *311:47 *334:8 0.000418098
25 *1443:D *311:34 0.000130968
26 *59:16 *311:34 0.000171906
27 *62:8 *311:34 0.000169665
28 *179:14 *311:10 3.17092e-05
29 *202:22 *311:10 5.85486e-05
30 *271:18 *311:34 0.000257636
31 *285:36 *311:10 6.17437e-06
32 *299:38 *311:10 1.61361e-05
33 *307:18 *311:16 4.5051e-05
34 *307:28 *311:16 0.000253986
35 *307:28 *311:34 0.000109928
36 *310:35 *311:10 8.78733e-06
*RES
1 *1249:Y *311:10 42.4329 
2 *311:10 *311:12 15 
3 *311:12 *311:16 4.45357 
4 *311:16 *311:34 44.4557 
5 *311:34 *1252:A 38 
6 *311:16 *311:47 36.1314 
7 *311:47 *1263:C1 23 
8 *311:12 *1261:B1 23 
*END

*D_NET *312 0.00825619
*CONN
*I *1251:A I *D sky130_fd_sc_hd__inv_2
*I *1252:B I *D sky130_fd_sc_hd__or2_2
*I *1250:X O *D sky130_fd_sc_hd__and3_2
*CAP
1 *1251:A 0
2 *1252:B 0.000642356
3 *1250:X 8.4361e-05
4 *312:35 0.000301791
5 *312:20 0.00228103
6 *312:8 0.00142124
7 *1252:B *314:10 3.5781e-06
8 *312:8 *599:68 0.000108913
9 *312:20 *1260:B 7.94913e-05
10 *312:20 *1275:A1 0.000351513
11 *312:20 *1442:RESET_B 4.87918e-05
12 *312:20 *319:37 0.000135691
13 *312:20 *320:12 0.000911155
14 *312:20 *332:8 0.000438468
15 *312:20 *333:12 0.000472412
16 *312:20 *577:26 7.47936e-05
17 *312:20 *623:35 0.000189272
18 *312:20 *623:60 9.91701e-05
19 *312:35 *1442:CLK 0
20 *312:35 *314:10 0
21 *312:35 *577:26 5.96881e-05
22 *312:35 *597:42 0.000164054
23 *312:35 *597:65 3.5243e-05
24 *1442:D *1252:B 0.000193916
25 *63:8 *312:35 0.000159259
26 *127:28 *312:35 0
27 *307:10 *312:8 0
*RES
1 *1250:X *312:8 39.5536 
2 *312:8 *312:20 45.2429 
3 *312:20 *1252:B 31.265 
4 *312:20 *312:35 36.4836 
5 *312:35 *1251:A 23 
*END

*D_NET *313 0.00633999
*CONN
*I *1263:A3 I *D sky130_fd_sc_hd__a311o_2
*I *1261:A3 I *D sky130_fd_sc_hd__a31o_2
*I *1251:Y O *D sky130_fd_sc_hd__inv_2
*CAP
1 *1263:A3 0.000130667
2 *1261:A3 0
3 *1251:Y 0.000720659
4 *313:26 0.000529511
5 *313:18 0.000904513
6 *313:10 0.000964994
7 *1263:A3 *1263:B1 1.50467e-05
8 *1263:A3 *324:10 9.67842e-05
9 *1263:A3 *571:40 2.02872e-05
10 *313:10 *1443:RESET_B 5.3304e-05
11 *313:10 *597:6 0.000139352
12 *313:18 *324:10 0.000308919
13 *313:18 *449:111 0.000160737
14 *313:18 *571:10 4.05745e-05
15 *313:18 *571:40 2.64616e-05
16 *313:18 *626:28 6.56284e-05
17 *313:26 *321:33 0.000180224
18 *313:26 *571:40 0.000162948
19 *313:26 *599:35 0.000208721
20 *313:26 *599:49 0.000153188
21 *313:26 *629:28 7.77874e-05
22 *1204:A1 *313:10 0.000200283
23 *128:24 *313:10 0.000518561
24 *129:24 *313:10 0.000224649
25 *272:10 *313:10 1.58949e-05
26 *273:18 *1263:A3 4.8945e-05
27 *307:28 *313:26 0.000305425
28 *311:34 *313:26 6.59263e-05
*RES
1 *1251:Y *313:10 35.0971 
2 *313:10 *313:18 35.4893 
3 *313:18 *313:26 41.4136 
4 *313:26 *1261:A3 23 
5 *313:18 *1263:A3 25.9 
*END

*D_NET *314 0.0113379
*CONN
*I *1253:B1 I *D sky130_fd_sc_hd__a21o_2
*I *1254:C I *D sky130_fd_sc_hd__and3_2
*I *1252:X O *D sky130_fd_sc_hd__or2_2
*CAP
1 *1253:B1 0
2 *1254:C 0.000259125
3 *1252:X 0.000350386
4 *314:39 0.000804815
5 *314:14 0.00214682
6 *314:10 0.00143326
7 *1254:C *334:8 2.15285e-05
8 *1254:C *503:50 7.07833e-06
9 *1254:C *571:56 9.28078e-06
10 *314:10 *1442:CLK 0.000232744
11 *314:10 *449:121 2.42715e-05
12 *314:14 *579:27 0.00127753
13 *314:14 *626:28 0
14 *314:39 *1250:A 0.000180448
15 *314:39 *1452:CLK 0.000219383
16 *314:39 *502:10 0.000347793
17 *314:39 *562:51 4.79458e-06
18 *314:39 *567:37 4.5051e-05
19 *314:39 *579:27 0.000641826
20 *314:39 *599:68 3.34818e-06
21 *1252:B *314:10 3.5781e-06
22 *1442:D *314:10 2.94066e-05
23 *1452:D *314:39 5.3304e-05
24 *72:16 *314:39 3.18198e-05
25 *130:40 *1254:C 1.94812e-05
26 *142:22 *314:14 0.00220163
27 *142:22 *314:39 0.000621166
28 *143:32 *314:14 0
29 *203:16 *314:39 0.000123945
30 *299:38 *314:39 0.000200604
31 *310:37 *1254:C 2.92911e-06
32 *310:47 *1254:C 9.88574e-06
33 *310:60 *1254:C 3.062e-05
34 *312:35 *314:10 0
*RES
1 *1252:X *314:10 43.4375 
2 *314:10 *314:14 12.2635 
3 *314:14 *1254:C 49.3039 
4 *314:14 *314:39 35.9513 
5 *314:39 *1253:B1 23 
*END

*D_NET *315 0.0022241
*CONN
*I *1255:C I *D sky130_fd_sc_hd__and3b_2
*I *1253:X O *D sky130_fd_sc_hd__a21o_2
*CAP
1 *1255:C 0.000256176
2 *1253:X 0.000281064
3 *315:10 0.00053724
4 *1255:C *1255:A_N 0.000158084
5 *1255:C *562:51 0.000218471
6 *1255:C *568:26 0.000244522
7 *1255:C *599:18 1.03955e-05
8 *1255:C *602:126 5.50049e-05
9 *315:10 *1436:CLK 1.83564e-05
10 *315:10 *502:10 5.67058e-05
11 *315:10 *502:34 0.000138444
12 *315:10 *562:51 1.24734e-05
13 *72:16 *315:10 8.25782e-05
14 *117:10 *315:10 1.01436e-05
15 *176:10 *1255:C 6.9805e-05
16 *203:16 *315:10 7.46386e-05
*RES
1 *1253:X *315:10 42.6607 
2 *315:10 *1255:C 44.1004 
*END

*D_NET *316 0.00264201
*CONN
*I *1255:A_N I *D sky130_fd_sc_hd__and3b_2
*I *1254:X O *D sky130_fd_sc_hd__and3_2
*CAP
1 *1255:A_N 0.000127541
2 *1254:X 0.000376452
3 *316:8 0.000503994
4 *1255:A_N *568:26 2.58101e-05
5 *1255:A_N *569:26 0.000139357
6 *1255:A_N *599:18 0.000107466
7 *1255:A_N *599:33 0.000139357
8 *316:8 *335:24 0.00035805
9 *316:8 *566:48 0.000101093
10 *1255:C *1255:A_N 0.000158084
11 *179:14 *316:8 0.000594602
12 *179:18 *316:8 1.02029e-05
*RES
1 *1254:X *316:8 46.9486 
2 *316:8 *1255:A_N 41.9564 
*END

*D_NET *317 0.000952208
*CONN
*I *1257:B2 I *D sky130_fd_sc_hd__a32o_2
*I *1256:X O *D sky130_fd_sc_hd__or2_2
*CAP
1 *1257:B2 0.000172641
2 *1256:X 4.82376e-05
3 *317:8 0.000220878
4 *317:8 *381:18 0.000141888
5 *317:8 *556:117 0.000116314
6 *121:95 *317:8 1.22906e-05
7 *189:76 *1257:B2 0.000122742
8 *299:65 *1257:B2 0.000117217
*RES
1 *1256:X *317:8 39.9057 
2 *317:8 *1257:B2 41.0036 
*END

*D_NET *318 0.0178341
*CONN
*I *1258:B I *D sky130_fd_sc_hd__nand2_2
*I *1259:B I *D sky130_fd_sc_hd__or2_2
*I *1257:X O *D sky130_fd_sc_hd__a32o_2
*CAP
1 *1258:B 0.000717186
2 *1259:B 0.000513535
3 *1257:X 0.000177028
4 *318:32 0.00235316
5 *318:22 0.00194323
6 *318:14 0.00247624
7 *318:8 0.00183248
8 *1258:B *1258:A 0.000644768
9 *1258:B *319:8 9.41704e-05
10 *1258:B *571:25 1.57571e-05
11 *1259:B *1434:RESET_B 0.000169706
12 *1259:B *320:12 7.31047e-05
13 *1259:B *473:35 8.30282e-05
14 *1259:B *488:8 0
15 *1259:B *629:28 1.70724e-05
16 *318:14 *1214:A 5.87296e-05
17 *318:14 *1222:A2 0.000159947
18 *318:14 *459:20 0.000107466
19 *318:14 *459:22 0.000212192
20 *318:14 *471:52 8.76222e-05
21 *318:14 *556:45 0.000227732
22 *318:14 *558:81 1.96391e-05
23 *318:14 *596:85 0
24 *318:14 *596:100 0
25 *318:14 *636:12 2.04313e-05
26 *318:22 *459:35 1.97789e-05
27 *318:22 *464:8 1.01436e-05
28 *318:22 *473:51 0.000711015
29 *318:22 *473:65 0
30 *318:32 *1437:CLK 1.19519e-05
31 *318:32 *460:34 0.00212405
32 *318:32 *566:14 0.000316994
33 *318:32 *566:48 8.36114e-05
34 *318:32 *575:57 3.13359e-05
35 uio_out[6] *318:22 6.52821e-05
36 *1114:A1 *318:8 9.76261e-05
37 *1114:A3 *318:14 0.000213679
38 *1214:D *318:14 5.88166e-05
39 *1216:B1 *318:14 0.000174865
40 *1475:D *318:14 0.000100782
41 *85:8 *318:14 8.25782e-05
42 *112:10 *1259:B 8.90323e-05
43 *176:58 *318:32 0.000843444
44 *179:66 *318:32 0.00018757
45 *189:76 *318:8 5.41288e-05
46 *198:41 *318:14 0
47 *200:145 *318:14 1.50312e-05
48 *260:24 *1259:B 4.51797e-05
49 *268:8 *318:22 0
50 *300:16 *318:14 0.000485452
51 *300:22 *318:32 7.57281e-06
*RES
1 *1257:X *318:8 41.0036 
2 *318:8 *318:14 43.2129 
3 *318:14 *318:22 42.5321 
4 *318:22 *318:32 37.2594 
5 *318:32 *1259:B 47.8289 
6 *318:32 *1258:B 48.5229 
*END

*D_NET *319 0.00987156
*CONN
*I *1260:A I *D sky130_fd_sc_hd__nand2_2
*I *1275:A1 I *D sky130_fd_sc_hd__a31o_2
*I *1277:A1 I *D sky130_fd_sc_hd__a311o_2
*I *1268:A I *D sky130_fd_sc_hd__nand2_2
*I *1258:Y O *D sky130_fd_sc_hd__nand2_2
*CAP
1 *1260:A 0
2 *1275:A1 0.000265601
3 *1277:A1 0
4 *1268:A 0
5 *1258:Y 4.45235e-05
6 *319:43 0.000143085
7 *319:37 0.000950553
8 *319:24 0.00102517
9 *319:12 0.0016147
10 *319:10 0.000823129
11 *319:8 0.000819992
12 *1275:A1 *1530:A 5.50106e-05
13 *1275:A1 *324:53 2.81066e-05
14 *319:8 *1258:A 5.3304e-05
15 *319:8 *571:25 2.02872e-05
16 *319:10 *1203:B1 0.000241659
17 *319:10 *1204:B1 0.000115478
18 *319:10 *321:33 5.94548e-05
19 *319:10 *494:48 8.20069e-05
20 *319:10 *571:10 3.14237e-05
21 *319:10 *578:16 0.000260786
22 *319:10 *578:39 0.00021651
23 *319:10 *579:21 2.26406e-05
24 *319:12 *1203:B1 1.19727e-05
25 *319:12 *321:18 1.17256e-05
26 *319:12 *321:33 1.05984e-05
27 *319:24 *1203:B1 2.58394e-05
28 *319:24 *1579:inc 0
29 *319:24 *321:18 0.00015838
30 *319:24 *490:10 0.000202035
31 *319:24 *584:10 3.16665e-05
32 *319:24 *613:26 0.000409274
33 *319:37 *580:10 0.000137651
34 *319:37 *623:35 0.000351513
35 *319:37 *623:60 0.000169589
36 *319:43 *1277:B1 0.000149532
37 *319:43 *324:35 1.05441e-05
38 *319:43 *623:60 1.05364e-05
39 *319:43 *629:28 0
40 *1203:A1 *319:24 9.85586e-06
41 *1258:B *319:8 9.41704e-05
42 *127:12 *319:10 0
43 *128:32 *319:10 1.32728e-05
44 *129:8 *319:10 0.000552938
45 *129:24 *319:10 0
46 *141:18 *319:10 0.000149835
47 *258:66 *319:10 0
48 *270:14 *319:24 0
49 *312:20 *1275:A1 0.000351513
50 *312:20 *319:37 0.000135691
*RES
1 *1258:Y *319:8 39.0979 
2 *319:8 *319:10 16.6957 
3 *319:10 *319:12 0.849286 
4 *319:12 *319:24 31.53 
5 *319:24 *1268:A 23 
6 *319:12 *319:37 25.3157 
7 *319:37 *319:43 32.2579 
8 *319:43 *1277:A1 23 
9 *319:37 *1275:A1 29.0071 
10 *319:10 *1260:A 38 
*END

*D_NET *320 0.00747899
*CONN
*I *1260:B I *D sky130_fd_sc_hd__nand2_2
*I *1259:X O *D sky130_fd_sc_hd__or2_2
*CAP
1 *1260:B 7.76558e-05
2 *1259:X 0
3 *320:12 0.00190211
4 *320:6 0.00182446
5 *320:12 *1259:A 0.000536358
6 *320:12 *1434:RESET_B 0.000299839
7 *320:12 *333:12 9.28078e-06
8 *320:12 *333:31 0.000751216
9 *320:12 *334:8 6.47495e-05
10 *320:12 *503:50 0.000510586
11 *320:12 *568:10 1.77248e-05
12 *320:12 *629:28 0
13 *1259:B *320:12 7.31047e-05
14 *311:47 *320:12 0.000421259
15 *312:20 *1260:B 7.94913e-05
16 *312:20 *320:12 0.000911155
*RES
1 *1259:X *320:6 38 
2 *320:6 *320:12 49.365 
3 *320:12 *1260:B 24.9679 
*END

*D_NET *321 0.00761005
*CONN
*I *1263:B1 I *D sky130_fd_sc_hd__a311o_2
*I *1262:A I *D sky130_fd_sc_hd__nand2_2
*I *1260:Y O *D sky130_fd_sc_hd__nand2_2
*CAP
1 *1263:B1 0.000196545
2 *1262:A 0
3 *1260:Y 0
4 *321:33 0.00120255
5 *321:18 0.00143013
6 *321:6 0.00243614
7 *321:18 *1023:B 2.62559e-05
8 *321:18 *1440:RESET_B 4.60255e-05
9 *321:18 *323:12 1.11037e-05
10 *321:18 *449:44 6.2574e-06
11 *321:18 *449:46 0.000114991
12 *321:18 *489:28 2.93335e-05
13 *321:18 *490:10 0.000229137
14 *321:18 *580:22 0
15 *321:18 *612:22 2.15285e-05
16 *321:33 *1443:RESET_B 7.15126e-05
17 *321:33 *1453:CLK 9.0778e-05
18 *321:33 *1531:A 1.34914e-05
19 *321:33 *577:10 0.000281231
20 *321:33 *578:16 0.000138413
21 *321:33 *624:59 3.15611e-05
22 *1263:A1 *321:33 1.30202e-06
23 *1263:A3 *1263:B1 1.50467e-05
24 *1440:D *321:18 0.000139706
25 *1453:D *321:33 1.64354e-05
26 *271:10 *321:18 0.000224535
27 *271:10 *321:33 0.000179496
28 *273:18 *1263:B1 3.9088e-05
29 *307:28 *321:33 7.08416e-05
30 *310:47 *321:33 0.000110509
31 *311:34 *321:33 1.57316e-05
32 *313:26 *321:33 0.000180224
33 *319:10 *321:33 5.94548e-05
34 *319:12 *321:18 1.17256e-05
35 *319:12 *321:33 1.05984e-05
36 *319:24 *321:18 0.00015838
*RES
1 *1260:Y *321:6 38 
2 *321:6 *321:18 37.9721 
3 *321:18 *1262:A 23 
4 *321:6 *321:33 46.1571 
5 *321:33 *1263:B1 41.0657 
*END

*D_NET *322 0.00757827
*CONN
*I *1262:B I *D sky130_fd_sc_hd__nand2_2
*I *1261:X O *D sky130_fd_sc_hd__a31o_2
*CAP
1 *1262:B 0
2 *1261:X 0.000166144
3 *322:24 0.00186192
4 *322:10 0.00202806
5 *322:10 *334:8 0.000171244
6 *322:10 *503:10 2.95305e-05
7 *322:24 *323:12 7.51453e-06
8 *322:24 *449:56 3.86688e-05
9 *322:24 *449:67 6.14498e-05
10 *322:24 *489:28 0.000395892
11 *322:24 *577:26 0.00101372
12 *322:24 *577:43 0.000366021
13 *322:24 *597:65 0
14 *322:24 *623:28 0.000352154
15 *322:24 *623:60 0.00038022
16 *59:16 *322:24 0
17 *126:8 *322:24 0
18 *126:12 *322:24 0.000131849
19 *134:31 *322:10 4.77164e-06
20 *137:10 *322:24 0
21 *142:22 *322:24 0.000166318
22 *284:82 *322:24 0.00040279
*RES
1 *1261:X *322:10 48.7861 
2 *322:10 *322:24 37.1101 
3 *322:24 *1262:B 23 
*END

*D_NET *323 0.00667114
*CONN
*I *1264:B I *D sky130_fd_sc_hd__and3_2
*I *1262:Y O *D sky130_fd_sc_hd__nand2_2
*CAP
1 *1264:B 0
2 *1262:Y 0.000190813
3 *323:30 0.00109331
4 *323:22 0.00168968
5 *323:12 0.000787179
6 *323:12 *1011:A 9.77405e-05
7 *323:12 *449:56 2.58738e-05
8 *323:22 *493:6 1.79538e-05
9 *323:22 *493:12 3.00792e-05
10 *1204:B2 *323:30 2.18506e-05
11 *59:16 *323:22 0.000233024
12 *62:8 *323:22 0.000296947
13 *127:28 *323:30 0.000148507
14 *128:20 *323:30 0.000100069
15 *128:24 *323:30 0.000198069
16 *129:24 *323:30 6.37845e-05
17 *137:24 *323:22 0.00046597
18 *137:33 *323:22 0.0003952
19 *139:10 *323:22 0.000330135
20 *142:10 *323:22 2.27289e-05
21 *272:10 *323:30 0.000347199
22 *311:34 *323:22 9.64122e-05
23 *321:18 *323:12 1.11037e-05
24 *322:24 *323:12 7.51453e-06
*RES
1 *1262:Y *323:12 41.6457 
2 *323:12 *323:22 47.6071 
3 *323:22 *323:30 32.4621 
4 *323:30 *1264:B 23 
*END

*D_NET *324 0.00997066
*CONN
*I *1264:C I *D sky130_fd_sc_hd__and3_2
*I *1277:A2 I *D sky130_fd_sc_hd__a311o_2
*I *1275:A2 I *D sky130_fd_sc_hd__a31o_2
*I *1268:B I *D sky130_fd_sc_hd__nand2_2
*I *1263:X O *D sky130_fd_sc_hd__a311o_2
*CAP
1 *1264:C 4.24857e-05
2 *1277:A2 0
3 *1275:A2 0
4 *1268:B 0
5 *1263:X 0.000353103
6 *324:53 0.00039234
7 *324:35 0.000648733
8 *324:22 0.000797181
9 *324:14 0.00157117
10 *324:10 0.000913186
11 *1264:C *597:6 5.50106e-05
12 *324:10 *1524:A 1.05441e-05
13 *324:10 *449:111 4.5051e-05
14 *324:10 *626:28 4.94766e-06
15 *324:14 *449:94 0
16 *324:14 *580:10 5.80974e-05
17 *324:14 *580:12 3.06908e-05
18 *324:22 *1440:RESET_B 6.36011e-05
19 *324:22 *504:35 0.000712344
20 *324:22 *591:29 4.0212e-05
21 *324:22 *613:18 5.85486e-05
22 *324:22 *626:28 0.000151066
23 *324:22 *629:22 0.00087046
24 *324:35 *642:DIODE 1.55722e-05
25 *324:35 *327:10 2.05503e-05
26 *324:35 *504:35 0.00056375
27 *324:35 *629:22 0.000409874
28 *324:35 *629:28 1.83404e-05
29 *324:35 *629:43 0.000165186
30 *324:53 *642:DIODE 4.70781e-05
31 *324:53 *1277:C1 1.09903e-05
32 *324:53 *325:6 9.91895e-05
33 *324:53 *325:15 2.18409e-05
34 *324:53 *326:22 0.000262286
35 *324:53 *326:28 6.02088e-05
36 *1263:A3 *324:10 9.67842e-05
37 *1275:A1 *324:53 2.81066e-05
38 *73:8 *324:10 1.74874e-06
39 *73:8 *324:14 2.04458e-05
40 *257:30 *324:22 3.54174e-05
41 *258:66 *324:10 7.41959e-05
42 *258:66 *324:14 0.000592786
43 *258:74 *324:10 7.69538e-05
44 *273:18 *324:10 0.000211123
45 *313:18 *324:10 0.000308919
46 *319:43 *324:35 1.05441e-05
*RES
1 *1263:X *324:10 46.4514 
2 *324:10 *324:14 16.7725 
3 *324:14 *324:22 32.1459 
4 *324:22 *1268:B 23 
5 *324:14 *324:35 25.4639 
6 *324:35 *324:53 37.2914 
7 *324:53 *1275:A2 23 
8 *324:35 *1277:A2 23 
9 *324:10 *1264:C 38.6214 
*END

*D_NET *325 0.00389103
*CONN
*I *1275:B1 I *D sky130_fd_sc_hd__a31o_2
*I *1267:A_N I *D sky130_fd_sc_hd__and2b_2
*I *1277:C1 I *D sky130_fd_sc_hd__a311o_2
*I *1265:Y O *D sky130_fd_sc_hd__nor2_2
*CAP
1 *1275:B1 0
2 *1267:A_N 0
3 *1277:C1 2.29409e-05
4 *1265:Y 0.000513938
5 *325:28 0.000190082
6 *325:15 0.000219712
7 *325:6 0.000566509
8 *325:6 *639:DIODE 5.50049e-05
9 *325:6 *1203:A2 0.000183638
10 *325:6 *326:10 0.000938581
11 *325:6 *326:18 0.000139352
12 *325:6 *326:22 1.03836e-05
13 *325:6 *336:6 0.000308039
14 *325:15 *326:22 1.5769e-05
15 *325:15 *336:6 9.75779e-05
16 *325:28 *1267:B 2.81066e-05
17 *325:28 *326:22 1.30878e-05
18 *325:28 *327:10 2.47815e-05
19 *325:28 *336:6 0.000221241
20 *325:28 *503:10 5.26113e-05
21 *325:28 *599:49 0.000128632
22 *127:28 *325:6 2.90179e-05
23 *324:53 *1277:C1 1.09903e-05
24 *324:53 *325:6 9.91895e-05
25 *324:53 *325:15 2.18409e-05
*RES
1 *1265:Y *325:6 37.4379 
2 *325:6 *1277:C1 23.4971 
3 *325:6 *325:15 1.09786 
4 *325:15 *1267:A_N 23 
5 *325:15 *325:28 34.4329 
6 *325:28 *1275:B1 23 
*END

*D_NET *326 0.0051655
*CONN
*I *1277:A3 I *D sky130_fd_sc_hd__a311o_2
*I *1267:B I *D sky130_fd_sc_hd__and2b_2
*I *1275:A3 I *D sky130_fd_sc_hd__a31o_2
*I *1266:Y O *D sky130_fd_sc_hd__nand2_2
*CAP
1 *1277:A3 0
2 *1267:B 4.81834e-05
3 *1275:A3 0
4 *1266:Y 0.000907932
5 *326:28 0.000163246
6 *326:22 0.000353074
7 *326:18 0.000262613
8 *326:10 0.0010289
9 *1267:B *327:10 8.264e-05
10 *326:10 *1266:A 9.64943e-05
11 *326:18 *629:28 5.43589e-05
12 *326:22 *327:10 0.000348905
13 *326:28 *504:35 7.57281e-06
14 *1266:B *326:10 6.08911e-05
15 *127:28 *326:10 8.35995e-05
16 *134:31 *326:28 0.000199313
17 *324:53 *326:22 0.000262286
18 *324:53 *326:28 6.02088e-05
19 *325:6 *326:10 0.000938581
20 *325:6 *326:18 0.000139352
21 *325:6 *326:22 1.03836e-05
22 *325:15 *326:22 1.5769e-05
23 *325:28 *1267:B 2.81066e-05
24 *325:28 *326:22 1.30878e-05
*RES
1 *1266:Y *326:10 37.355 
2 *326:10 *326:18 32.4236 
3 *326:18 *326:22 4.80571 
4 *326:22 *326:28 32.9621 
5 *326:28 *1275:A3 23 
6 *326:22 *1267:B 24.0979 
7 *326:18 *1277:A3 23 
*END

*D_NET *327 0.002688
*CONN
*I *1269:A1 I *D sky130_fd_sc_hd__a21boi_2
*I *1270:A1 I *D sky130_fd_sc_hd__o21a_2
*I *1267:X O *D sky130_fd_sc_hd__and2b_2
*CAP
1 *1269:A1 0
2 *1270:A1 0.000276577
3 *1267:X 0.000745114
4 *327:10 0.00102169
5 *1270:A1 *642:DIODE 0
6 *1270:A1 *1019:A 2.75733e-06
7 *1270:A1 *328:14 1.09111e-05
8 *1270:A1 *329:10 5.06677e-05
9 *1270:A1 *613:26 5.43589e-05
10 *327:10 *642:DIODE 0
11 *327:10 *1019:A 2.25693e-05
12 *327:10 *596:12 0
13 *327:10 *629:28 2.64768e-05
14 *1267:B *327:10 8.264e-05
15 *74:8 *327:10 0
16 *324:35 *327:10 2.05503e-05
17 *325:28 *327:10 2.47815e-05
18 *326:22 *327:10 0.000348905
*RES
1 *1267:X *327:10 48.585 
2 *327:10 *1270:A1 41.9357 
3 *327:10 *1269:A1 38 
*END

*D_NET *328 0.00285086
*CONN
*I *1270:A2 I *D sky130_fd_sc_hd__o21a_2
*I *1269:A2 I *D sky130_fd_sc_hd__a21boi_2
*I *1268:Y O *D sky130_fd_sc_hd__nand2_2
*CAP
1 *1270:A2 0.000101981
2 *1269:A2 0
3 *1268:Y 0.00037054
4 *328:14 0.000240921
5 *328:6 0.000713441
6 *1270:A2 *584:36 0.000130985
7 *328:6 *1536:A 1.73238e-05
8 *328:6 *584:10 0.00040238
9 *328:6 *584:36 0.000274201
10 *328:6 *613:26 0.000130527
11 *328:14 *329:10 0.000178119
12 *328:14 *449:38 7.67478e-05
13 *328:14 *595:12 2.01129e-05
14 *328:14 *595:41 6.94112e-06
15 *328:14 *613:26 1.66113e-05
16 *1270:A1 *328:14 1.09111e-05
17 *74:8 *328:14 0.000159123
*RES
1 *1268:Y *328:6 32.6736 
2 *328:6 *328:14 34.5261 
3 *328:14 *1269:A2 23 
4 *328:6 *1270:A2 25.0714 
*END

*D_NET *329 0.000587438
*CONN
*I *1270:B1 I *D sky130_fd_sc_hd__o21a_2
*I *1269:Y O *D sky130_fd_sc_hd__a21boi_2
*CAP
1 *1270:B1 0
2 *1269:Y 0.000135719
3 *329:10 0.000135719
4 *329:10 *595:41 5.3304e-05
5 *329:10 *613:26 3.39102e-05
6 *1270:A1 *329:10 5.06677e-05
7 *328:14 *329:10 0.000178119
*RES
1 *1269:Y *329:10 40.8793 
2 *329:10 *1270:B1 38 
*END

*D_NET *330 0.00876765
*CONN
*I *1273:B I *D sky130_fd_sc_hd__or2_2
*I *1272:B I *D sky130_fd_sc_hd__nand2_2
*I *1271:X O *D sky130_fd_sc_hd__o21ba_2
*CAP
1 *1273:B 0
2 *1272:B 0
3 *1271:X 0.000332705
4 *330:38 0.000237049
5 *330:28 0.00030954
6 *330:22 0.00130833
7 *330:10 0.00156854
8 *330:10 *495:26 4.32048e-05
9 *330:10 *569:81 0.000189183
10 *330:22 *1097:A1 0.000707454
11 *330:22 *332:8 0.000181125
12 *330:22 *337:12 4.30894e-05
13 *330:22 *473:65 2.17681e-05
14 *330:22 *497:14 2.09099e-05
15 *330:22 *497:44 3.7122e-06
16 *330:22 *577:43 0.00140116
17 *330:22 *578:56 0.000303782
18 *330:22 *624:59 1.8399e-05
19 *330:28 *599:68 7.89973e-05
20 *330:38 *1274:A 0.000121976
21 *330:38 *332:8 2.02872e-05
22 *330:38 *505:25 9.28078e-06
23 *330:38 *505:38 0.000275811
24 *330:38 *562:36 5.50106e-05
25 *330:38 *564:10 5.50106e-05
26 *330:38 *599:56 5.3304e-05
27 *1229:C *330:10 1.05441e-05
28 *132:43 *330:22 7.27694e-06
29 *142:22 *330:28 1.27408e-05
30 *173:18 *330:22 0.000135037
31 *278:53 *330:22 0.000277792
32 *280:31 *330:10 0.00021677
33 *280:45 *330:22 0.000157275
34 *284:82 *330:28 9.28078e-06
35 *288:25 *330:10 6.82841e-05
36 *290:28 *330:22 0.000502429
37 *306:32 *330:22 0
38 *307:10 *330:38 1.05984e-05
*RES
1 *1271:X *330:10 43.3132 
2 *330:10 *330:22 45.5798 
3 *330:22 *330:28 31.2014 
4 *330:28 *330:38 34.93 
5 *330:38 *1272:B 23 
6 *330:28 *1273:B 23 
*END

*D_NET *331 0.00368429
*CONN
*I *1274:A I *D sky130_fd_sc_hd__nand2_2
*I *1282:A1 I *D sky130_fd_sc_hd__a21o_2
*I *1281:A I *D sky130_fd_sc_hd__nand3_2
*I *1272:Y O *D sky130_fd_sc_hd__nand2_2
*CAP
1 *1274:A 0.000362819
2 *1282:A1 0.000169067
3 *1281:A 0.000422714
4 *1272:Y 0
5 *331:8 0.000696463
6 *331:6 0.000467501
7 *1274:A *1518:A 3.22879e-05
8 *1274:A *332:8 6.12666e-05
9 *1274:A *505:25 1.88944e-05
10 *1281:A *1089:B 0
11 *1281:A *505:10 6.14523e-05
12 *1281:A *580:22 7.28609e-05
13 *1281:A *584:46 7.88926e-05
14 *1282:A1 *1096:A1 0.00026025
15 *1282:A1 *1282:A2 2.64616e-05
16 *1282:A1 *456:214 4.5051e-05
17 *1282:A1 *564:37 2.25809e-05
18 *331:8 *505:10 1.40183e-05
19 *331:8 *505:25 4.8035e-05
20 *186:12 *1281:A 8.1796e-05
21 *258:44 *1281:A 1.42071e-05
22 *306:40 *1282:A1 0.000219383
23 *307:10 *1274:A 0.000161527
24 *307:10 *1281:A 8.04857e-05
25 *307:10 *331:8 0.000144297
26 *330:38 *1274:A 0.000121976
*RES
1 *1272:Y *331:6 38 
2 *331:6 *331:8 2.25786 
3 *331:8 *1281:A 45.7057 
4 *331:8 *1282:A1 42.4536 
5 *331:6 *1274:A 43.9864 
*END

*D_NET *332 0.00164327
*CONN
*I *1274:B I *D sky130_fd_sc_hd__nand2_2
*I *1273:X O *D sky130_fd_sc_hd__or2_2
*CAP
1 *1274:B 0
2 *1273:X 0.000283771
3 *332:8 0.000283771
4 *332:8 *1097:A1 9.58714e-05
5 *332:8 *1518:A 5.50106e-05
6 *332:8 *505:38 0.000223698
7 *1274:A *332:8 6.12666e-05
8 *312:20 *332:8 0.000438468
9 *330:22 *332:8 0.000181125
10 *330:38 *332:8 2.02872e-05
*RES
1 *1273:X *332:8 31.265 
2 *332:8 *1274:B 23 
*END

*D_NET *333 0.00682159
*CONN
*I *1276:A I *D sky130_fd_sc_hd__nand2_2
*I *1277:B1 I *D sky130_fd_sc_hd__a311o_2
*I *1274:Y O *D sky130_fd_sc_hd__nand2_2
*CAP
1 *1276:A 0
2 *1277:B1 0.000195324
3 *1274:Y 0.000508615
4 *333:31 0.000952487
5 *333:12 0.00165643
6 *1277:B1 *642:DIODE 0.000126166
7 *1277:B1 *334:8 6.3704e-06
8 *333:12 *334:8 4.30894e-05
9 *333:31 *1276:B 2.31538e-05
10 *333:31 *334:16 0.000608063
11 *333:31 *335:18 6.45428e-05
12 *333:31 *568:10 2.73782e-05
13 *333:31 *574:12 2.02872e-05
14 *333:31 *575:37 0.00077675
15 *333:31 *577:10 0
16 *1263:A1 *333:31 0.000216333
17 *307:28 *333:31 0.000214158
18 *312:20 *333:12 0.000472412
19 *319:43 *1277:B1 0.000149532
20 *320:12 *333:12 9.28078e-06
21 *320:12 *333:31 0.000751216
*RES
1 *1274:Y *333:12 45.1568 
2 *333:12 *1277:B1 41.1382 
3 *333:12 *333:31 37.2575 
4 *333:31 *1276:A 23 
*END

*D_NET *334 0.00528456
*CONN
*I *1276:B I *D sky130_fd_sc_hd__nand2_2
*I *1275:X O *D sky130_fd_sc_hd__a31o_2
*CAP
1 *1276:B 0.000364487
2 *1275:X 0.000622771
3 *334:16 0.000706245
4 *334:8 0.000964529
5 *1276:B *335:18 0.000219383
6 *334:8 *503:50 0.000141216
7 *334:8 *567:8 1.50638e-05
8 *334:8 *571:56 4.72787e-05
9 *334:16 *1524:A 5.43589e-05
10 *334:16 *335:18 0.00027222
11 *334:16 *574:12 0.000120326
12 *334:16 *574:23 3.55458e-05
13 *334:16 *575:37 6.08617e-05
14 *334:16 *626:28 1.02426e-05
15 *1254:C *334:8 2.15285e-05
16 *1277:B1 *334:8 6.3704e-06
17 *130:32 *334:8 0.000133441
18 *141:6 *1276:B 8.91468e-07
19 *274:10 *334:8 0.000159402
20 *275:22 *334:16 0
21 *311:47 *334:8 0.000418098
22 *320:12 *334:8 6.47495e-05
23 *322:10 *334:8 0.000171244
24 *333:12 *334:8 4.30894e-05
25 *333:31 *1276:B 2.31538e-05
26 *333:31 *334:16 0.000608063
*RES
1 *1275:X *334:8 49.7657 
2 *334:8 *334:16 39.4457 
3 *334:16 *1276:B 42.8057 
*END

*D_NET *335 0.00608326
*CONN
*I *1278:B I *D sky130_fd_sc_hd__and3_2
*I *1276:Y O *D sky130_fd_sc_hd__nand2_2
*CAP
1 *1278:B 0
2 *1276:Y 0.00103573
3 *335:24 0.000669699
4 *335:18 0.00170543
5 *335:18 *1452:CLK 8.74204e-05
6 *335:18 *574:12 0.000179092
7 *335:18 *575:37 4.95851e-05
8 *335:18 *577:10 5.50106e-05
9 *335:24 *1518:A 0.000127267
10 *335:24 *562:51 0
11 *335:24 *566:48 0.000507312
12 *1276:B *335:18 0.000219383
13 *1452:D *335:18 0.000139035
14 *75:8 *335:24 4.77164e-06
15 *179:14 *335:24 0.000608711
16 *316:8 *335:24 0.00035805
17 *333:31 *335:18 6.45428e-05
18 *334:16 *335:18 0.00027222
*RES
1 *1276:Y *335:18 40.3171 
2 *335:18 *335:24 44.2307 
3 *335:24 *1278:B 23 
*END

*D_NET *336 0.00593543
*CONN
*I *1282:A2 I *D sky130_fd_sc_hd__a21o_2
*I *1281:B I *D sky130_fd_sc_hd__nand3_2
*I *1278:C I *D sky130_fd_sc_hd__and3_2
*I *1277:X O *D sky130_fd_sc_hd__a311o_2
*CAP
1 *1282:A2 5.07659e-05
2 *1281:B 0.000324464
3 *1278:C 0
4 *1277:X 0.000638563
5 *336:17 0.00109216
6 *336:6 0.00135549
7 *1281:B *338:22 0.000398066
8 *1281:B *449:30 1.75524e-05
9 *1281:B *584:46 9.58714e-05
10 *1282:A2 *1096:A1 1.21972e-05
11 *1282:A2 *564:37 9.41704e-05
12 *336:6 *599:49 5.3304e-05
13 *336:6 *599:56 9.41704e-05
14 *336:17 *1283:C 7.39261e-05
15 *336:17 *338:22 2.5607e-05
16 *336:17 *562:36 1.40958e-05
17 *336:17 *599:56 0.000462582
18 *336:17 *599:68 5.99567e-06
19 *1282:A1 *1282:A2 2.64616e-05
20 *142:22 *1281:B 0.000105743
21 *142:22 *336:17 0.000291597
22 *186:12 *1281:B 1.76557e-05
23 *306:40 *336:17 5.81396e-05
24 *325:6 *336:6 0.000308039
25 *325:15 *336:6 9.75779e-05
26 *325:28 *336:6 0.000221241
*RES
1 *1277:X *336:6 31.7207 
2 *336:6 *1278:C 23 
3 *336:6 *336:17 26.1857 
4 *336:17 *1281:B 44.67 
5 *336:17 *1282:A2 39.0979 
*END

*D_NET *337 0.00309695
*CONN
*I *1280:B I *D sky130_fd_sc_hd__xnor2_2
*I *1279:Y O *D sky130_fd_sc_hd__nand2_2
*CAP
1 *1280:B 0.000465861
2 *1279:Y 0.000566005
3 *337:12 0.00103187
4 *1280:B *584:46 9.03851e-06
5 *1280:B *584:70 1.94884e-05
6 *1280:B *596:45 2.11066e-05
7 *1280:B *617:61 0.000114266
8 *337:12 *497:8 0.000198967
9 *337:12 *497:44 0
10 *337:12 *584:70 1.02561e-05
11 *337:12 *596:45 1.36121e-05
12 *337:12 *621:72 9.91024e-05
13 *337:12 *630:62 5.62433e-06
14 *64:14 *1280:B 0
15 *132:18 *337:12 8.13127e-05
16 *132:43 *337:12 8.30566e-06
17 *193:24 *1280:B 1.02104e-05
18 *194:24 *337:12 0
19 *207:14 *337:12 3.41998e-06
20 *258:18 *1280:B 0.000101527
21 *258:30 *1280:B 7.98243e-05
22 *261:12 *1280:B 3.61511e-05
23 *278:53 *337:12 7.89883e-05
24 *285:26 *337:12 9.89258e-05
25 *330:22 *337:12 4.30894e-05
*RES
1 *1279:Y *337:12 46.9071 
2 *337:12 *1280:B 44.8357 
*END

*D_NET *338 0.00349234
*CONN
*I *1281:C I *D sky130_fd_sc_hd__nand3_2
*I *1282:B1 I *D sky130_fd_sc_hd__a21o_2
*I *1280:Y O *D sky130_fd_sc_hd__xnor2_2
*CAP
1 *1281:C 0
2 *1282:B1 0
3 *1280:Y 0.000270911
4 *338:22 0.000360235
5 *338:14 0.000631146
6 *338:14 *1010:A 0.00018611
7 *338:14 *1104:B 5.50106e-05
8 *338:14 *503:24 5.50049e-05
9 *338:14 *506:31 8.93148e-05
10 *338:14 *584:46 0.000159426
11 *338:22 *339:8 0.000122679
12 *338:22 *584:46 7.42621e-05
13 *1280:A *338:14 4.93812e-05
14 *1281:B *338:22 0.000398066
15 *186:12 *338:14 0.000757186
16 *186:12 *338:22 0.00010655
17 *261:12 *338:14 0.000142173
18 *306:40 *338:22 9.28078e-06
19 *336:17 *338:22 2.5607e-05
*RES
1 *1280:Y *338:14 34.9107 
2 *338:14 *338:22 37.83 
3 *338:22 *1282:B1 23 
4 *338:14 *1281:C 23 
*END

*D_NET *339 0.00154042
*CONN
*I *1283:B I *D sky130_fd_sc_hd__and3_2
*I *1281:Y O *D sky130_fd_sc_hd__nand3_2
*CAP
1 *1283:B 8.41723e-05
2 *1281:Y 0.000410162
3 *339:8 0.000494334
4 *1283:B *562:36 2.02872e-05
5 *339:8 *340:10 0.000169153
6 *339:8 *505:10 4.01034e-05
7 *306:32 *1283:B 5.50106e-05
8 *306:40 *339:8 0.000144515
9 *338:22 *339:8 0.000122679
*RES
1 *1281:Y *339:8 44.8357 
2 *339:8 *1283:B 39.0979 
*END

*D_NET *340 0.00132831
*CONN
*I *1283:C I *D sky130_fd_sc_hd__and3_2
*I *1282:X O *D sky130_fd_sc_hd__a21o_2
*CAP
1 *1283:C 5.35265e-05
2 *1282:X 0.000207675
3 *340:10 0.000261202
4 *1283:C *562:36 0.000123239
5 *1283:C *599:56 5.50106e-05
6 *340:10 *505:10 7.89883e-05
7 *340:10 *505:25 0.000175148
8 *340:10 *505:38 1.05441e-05
9 *340:10 *564:37 5.50049e-05
10 *306:40 *340:10 6.48923e-05
11 *336:17 *1283:C 7.39261e-05
12 *339:8 *340:10 0.000169153
*RES
1 *1282:X *340:10 42.2879 
2 *340:10 *1283:C 40.2164 
*END

*D_NET *341 0.0101322
*CONN
*I *1417:B I *D sky130_fd_sc_hd__and2_2
*I *1555:A I *D sky130_fd_sc_hd__clkdlybuf4s25_1
*I *1284:X O *D sky130_fd_sc_hd__a21o_2
*CAP
1 *1417:B 0
2 *1555:A 0.000204778
3 *1284:X 0.000453545
4 *341:31 0.00302701
5 *341:12 0.00368533
6 *1555:A *1364:C 0
7 *1555:A *1478:CLK 8.57167e-05
8 *1555:A *447:10 1.40087e-05
9 *1555:A *516:40 0
10 *341:12 *417:16 0.000134538
11 *341:12 *430:10 2.31209e-05
12 *341:12 *508:26 7.71572e-05
13 *341:12 *519:37 0.00038152
14 *341:12 *553:16 0.000138124
15 *341:12 *610:70 5.79413e-06
16 *341:31 *417:16 0.00062715
17 *341:31 *444:18 0.000879696
18 *341:31 *510:18 0.000100139
19 *341:31 *519:37 0.000279771
20 *341:31 *550:48 0
21 *1284:B1 *341:12 1.05441e-05
22 *87:18 *1555:A 4.24694e-06
*RES
1 *1284:X *341:12 47.8368 
2 *341:12 *1555:A 49.4904 
3 *341:12 *341:31 31.6203 
4 *341:31 *1417:B 23 
*END

*D_NET *342 0.00713193
*CONN
*I *1381:C1 I *D sky130_fd_sc_hd__o311a_2
*I *1390:C1 I *D sky130_fd_sc_hd__o311a_2
*I *1372:C1 I *D sky130_fd_sc_hd__o211a_2
*I *1286:X O *D sky130_fd_sc_hd__o21a_2
*CAP
1 *1381:C1 0
2 *1390:C1 0
3 *1372:C1 2.40264e-05
4 *1286:X 0.000352889
5 *342:54 0.000226996
6 *342:41 0.000417276
7 *342:31 0.00121135
8 *342:14 0.00117608
9 *342:8 0.000937862
10 *1372:C1 *1384:A1 2.93104e-06
11 *342:8 *645:CLK 0.00048103
12 *342:14 *1327:A 0.000199613
13 *342:14 *1327:C 0.000285342
14 *342:14 *1384:A1 9.67842e-05
15 *342:14 *1385:A 8.04713e-05
16 *342:14 *343:10 1.7992e-05
17 *342:14 *343:25 4.23817e-05
18 *342:14 *378:8 0.000106814
19 *342:14 *382:8 8.27285e-05
20 *342:14 *435:20 2.32101e-05
21 *342:14 *635:12 0.000228204
22 *342:31 *1372:A1 4.49806e-05
23 *342:31 *353:10 0.000100069
24 *342:31 *435:20 0.000233619
25 *342:31 *552:59 0.000117237
26 *342:41 *1390:A3 6.99492e-05
27 *342:41 *1498:A 9.90205e-05
28 *342:41 *426:6 1.41077e-05
29 *342:41 *433:10 0.00026025
30 *342:41 *487:14 1.54983e-05
31 *342:54 *431:20 4.77164e-06
32 *342:54 *433:10 5.95172e-05
33 *342:54 *435:20 7.08529e-05
34 *81:8 *342:41 4.80733e-05
*RES
1 *1286:X *342:8 43.3857 
2 *342:8 *342:14 27.6357 
3 *342:14 *1372:C1 23.4971 
4 *342:14 *342:31 9.88071 
5 *342:31 *342:41 37.9129 
6 *342:41 *1390:C1 23 
7 *342:31 *342:54 33.3764 
8 *342:54 *1381:C1 23 
*END

*D_NET *343 0.0048925
*CONN
*I *1385:A I *D sky130_fd_sc_hd__nor2_2
*I *1366:B1 I *D sky130_fd_sc_hd__a21oi_2
*I *1376:B1 I *D sky130_fd_sc_hd__a21oi_2
*I *1287:Y O *D sky130_fd_sc_hd__o21ai_2
*CAP
1 *1385:A 0.000407648
2 *1366:B1 0
3 *1376:B1 0.000526683
4 *1287:Y 0.000549695
5 *343:25 0.000474826
6 *343:10 0.00114356
7 *1376:B1 *1327:A 1.59094e-05
8 *1376:B1 *1344:A0 0
9 *1376:B1 *1344:S 6.4652e-05
10 *1376:B1 *398:12 3.8382e-06
11 *1376:B1 *398:14 9.36972e-05
12 *1385:A *398:34 3.59199e-05
13 *1385:A *436:10 0.000368924
14 *1385:A *635:12 0
15 *343:10 *1327:B 0.00024985
16 *343:10 *381:18 0.0002999
17 *343:10 *398:34 0.00026599
18 *343:10 *442:10 1.05658e-05
19 *343:10 *508:48 0
20 *343:10 *514:49 9.20311e-06
21 *343:25 *398:34 0.000128583
22 *43:12 *1385:A 0
23 *78:10 *1385:A 0
24 *199:6 *343:10 5.67058e-05
25 *199:14 *343:10 4.55103e-05
26 *342:14 *1385:A 8.04713e-05
27 *342:14 *343:10 1.7992e-05
28 *342:14 *343:25 4.23817e-05
*RES
1 *1287:Y *343:10 47.2179 
2 *343:10 *1376:B1 45.9232 
3 *343:10 *343:25 1.90571 
4 *343:25 *1366:B1 38 
5 *343:25 *1385:A 46.9486 
*END

*D_NET *344 0.000521513
*CONN
*I *1289:A2 I *D sky130_fd_sc_hd__o21ba_2
*I *1288:X O *D sky130_fd_sc_hd__and2b_2
*CAP
1 *1289:A2 2.32701e-05
2 *1288:X 0.000116409
3 *344:8 0.000139679
4 *1289:A2 *345:6 5.3304e-05
5 *344:8 *351:10 0.000135547
6 *344:8 *585:64 0
7 *1289:A1 *1289:A2 5.3304e-05
*RES
1 *1288:X *344:8 39.9057 
2 *344:8 *1289:A2 38.6214 
*END

*D_NET *345 0.00104847
*CONN
*I *1290:A1 I *D sky130_fd_sc_hd__mux2_1
*I *1289:X O *D sky130_fd_sc_hd__o21ba_2
*CAP
1 *1290:A1 0
2 *1289:X 0.000161172
3 *345:6 0.000161172
4 *345:6 *570:69 0.000494979
5 *345:6 *585:64 4.94073e-05
6 *1289:A1 *345:6 6.20867e-05
7 *1289:A2 *345:6 5.3304e-05
8 *1289:B1_N *345:6 6.63461e-05
*RES
1 *1289:X *345:6 28.51 
2 *345:6 *1290:A1 23 
*END

*D_NET *346 0.001664
*CONN
*I *1299:D I *D sky130_fd_sc_hd__and4bb_2
*I *1296:B I *D sky130_fd_sc_hd__and3b_2
*I *1290:X O *D sky130_fd_sc_hd__mux2_1
*CAP
1 *1299:D 0
2 *1296:B 0
3 *1290:X 0
4 *346:29 0.000383943
5 *346:14 0.000118855
6 *346:4 0.000502798
7 *346:14 *351:10 4.334e-05
8 *346:14 *570:69 5.67058e-05
9 *346:29 *1299:A_N 0
10 *346:29 *1299:B_N 8.87886e-05
11 *346:29 *351:10 0
12 *346:29 *570:69 8.6949e-05
13 *1299:C *346:29 2.68863e-05
14 *189:30 *346:29 2.92235e-05
15 *217:10 *346:14 5.50049e-05
16 *232:10 *346:29 0.000177755
17 *232:23 *346:29 9.37462e-05
*RES
1 *1290:X *346:4 23 
2 *346:4 *346:14 32.4443 
3 *346:14 *1296:B 23 
4 *346:4 *346:29 36.6907 
5 *346:29 *1299:D 23 
*END

*D_NET *347 0.00152127
*CONN
*I *1292:B I *D sky130_fd_sc_hd__nor2_2
*I *1291:Y O *D sky130_fd_sc_hd__a21oi_2
*CAP
1 *1292:B 0
2 *1291:Y 0.000588218
3 *347:14 0.000588218
4 *347:14 *1465:SET_B 6.86608e-05
5 *347:14 *348:12 9.86551e-06
6 *1131:C *347:14 7.89973e-05
7 *1291:B1 *347:14 5.50106e-05
8 *121:79 *347:14 4.75489e-05
9 *180:83 *347:14 1.14452e-05
10 *227:29 *347:14 7.33077e-05
*RES
1 *1291:Y *347:14 47.4043 
2 *347:14 *1292:B 38 
*END

*D_NET *348 0.00486205
*CONN
*I *1295:B1 I *D sky130_fd_sc_hd__a211o_2
*I *1292:Y O *D sky130_fd_sc_hd__nor2_2
*CAP
1 *1295:B1 0
2 *1292:Y 0.000543294
3 *348:22 0.000547013
4 *348:12 0.00109031
5 *348:12 *1578:addr[5] 0.000734187
6 *348:12 *408:18 0.000478947
7 *348:12 *624:75 7.35376e-05
8 *348:22 *1123:B 0.000238631
9 *348:22 *350:32 4.0365e-05
10 *348:22 *557:42 4.56316e-05
11 *348:22 *588:54 0.000552786
12 *348:22 *609:41 1.09111e-05
13 *348:22 *610:51 0
14 *1295:A1 *348:22 1.75562e-05
15 *222:25 *348:22 5.88619e-05
16 *223:14 *348:22 0.000397506
17 *227:29 *348:12 2.26497e-05
18 *347:14 *348:12 9.86551e-06
*RES
1 *1292:Y *348:12 48.2661 
2 *348:12 *348:22 36.1225 
3 *348:22 *1295:B1 23 
*END

*D_NET *349 0.0058841
*CONN
*I *1294:D I *D sky130_fd_sc_hd__or4_2
*I *1293:Y O *D sky130_fd_sc_hd__nor2_2
*CAP
1 *1294:D 0
2 *1293:Y 8.36255e-05
3 *349:20 0.000180206
4 *349:12 0.00194003
5 *349:8 0.00184345
6 *349:8 *351:10 0
7 *349:8 *371:18 1.95144e-05
8 *349:12 *362:8 0.000483374
9 *349:12 *373:8 8.11489e-05
10 *349:12 *558:68 7.74898e-06
11 *349:12 *582:8 0.000347205
12 *349:12 *611:12 1.41077e-05
13 *1074:A1 *349:12 3.84478e-06
14 *1074:A2 *349:12 0.000341799
15 *1294:A *349:20 5.67058e-05
16 *121:8 *349:12 3.25984e-05
17 *121:95 *349:12 0.000140259
18 *179:66 *349:20 3.11088e-05
19 *200:79 *349:20 4.75532e-05
20 *211:8 *349:20 0.000229822
*RES
1 *1293:Y *349:8 39.2014 
2 *349:8 *349:12 38.49 
3 *349:12 *349:20 33.9357 
4 *349:20 *1294:D 23 
*END

*D_NET *350 0.00724203
*CONN
*I *1295:C1 I *D sky130_fd_sc_hd__a211o_2
*I *1294:X O *D sky130_fd_sc_hd__or4_2
*CAP
1 *1295:C1 0
2 *1294:X 0.000374571
3 *350:32 0.000471931
4 *350:22 0.00133263
5 *350:10 0.00123527
6 *350:10 *590:51 7.38638e-05
7 *350:22 *1084:A2 0.000161827
8 *350:22 *1307:B1 0.000100061
9 *350:22 *363:10 1.41129e-05
10 *350:22 *371:18 8.11914e-06
11 *350:22 *581:67 4.30894e-05
12 *350:22 *584:70 0.000133695
13 *350:22 *590:33 9.77405e-05
14 *350:22 *594:40 9.03964e-06
15 *350:22 *614:74 0.00029711
16 *350:22 *616:32 0.000400813
17 *350:22 *616:53 0.000200895
18 *350:22 *617:73 6.08846e-05
19 *350:22 *617:100 0.000400848
20 *350:22 *620:30 0.000250437
21 *350:32 *363:10 0.00019971
22 *350:32 *371:18 6.74513e-06
23 *350:32 *558:53 8.46253e-05
24 *350:32 *588:54 0.000564853
25 *350:32 *590:33 1.17256e-05
26 *191:30 *350:10 0.000106697
27 *200:50 *350:22 0.000270142
28 *200:50 *350:32 8.49387e-06
29 *200:73 *350:10 2.05503e-05
30 *223:14 *350:32 2.80512e-05
31 *223:26 *350:32 0.000233133
32 *348:22 *350:32 4.0365e-05
*RES
1 *1294:X *350:10 43.1889 
2 *350:10 *350:22 37.7381 
3 *350:22 *350:32 40.8543 
4 *350:32 *1295:C1 23 
*END

*D_NET *351 0.00368353
*CONN
*I *1299:A_N I *D sky130_fd_sc_hd__and4bb_2
*I *1296:A_N I *D sky130_fd_sc_hd__and3b_2
*I *1295:X O *D sky130_fd_sc_hd__a211o_2
*CAP
1 *1299:A_N 0.000226246
2 *1296:A_N 3.08984e-05
3 *1295:X 0.000106347
4 *351:10 0.00107107
5 *351:8 0.000920268
6 *1296:A_N *1353:A 0.000141954
7 *1299:A_N *516:58 0.000227208
8 *351:10 *481:70 2.85803e-05
9 *351:10 *558:127 5.23051e-05
10 *351:10 *585:64 0
11 *47:6 *1296:A_N 7.88828e-05
12 *121:37 *351:10 0
13 *189:30 *1299:A_N 0.000249264
14 *200:26 *351:10 7.62646e-05
15 *213:51 *351:10 2.03902e-05
16 *215:25 *351:10 0
17 *216:10 *351:10 6.08751e-05
18 *223:14 *351:8 1.24376e-05
19 *223:26 *351:8 6.9805e-05
20 *232:10 *351:10 0
21 *232:23 *1299:A_N 0
22 *233:23 *351:10 0.000131847
23 *344:8 *351:10 0.000135547
24 *346:14 *351:10 4.334e-05
25 *346:29 *1299:A_N 0
26 *346:29 *351:10 0
27 *349:8 *351:10 0
*RES
1 *1295:X *351:8 39.5743 
2 *351:8 *351:10 12.47 
3 *351:10 *1296:A_N 39.5743 
4 *351:10 *1299:A_N 43.1371 
*END

*D_NET *352 0.00556901
*CONN
*I *1300:B I *D sky130_fd_sc_hd__nand2b_2
*I *1391:A1 I *D sky130_fd_sc_hd__mux2_1
*I *1296:X O *D sky130_fd_sc_hd__and3b_2
*CAP
1 *1300:B 0
2 *1391:A1 0.000512677
3 *1296:X 0.000314897
4 *352:29 9.85715e-05
5 *352:14 0.00135106
6 *352:8 0.00105471
7 *1391:A1 *399:16 0.000321948
8 *1391:A1 *486:20 4.87572e-05
9 *1391:A1 *486:37 8.88163e-05
10 *1391:A1 *514:49 8.66746e-06
11 *352:8 *1353:A 3.88766e-05
12 *352:8 *478:28 0.000137651
13 *352:14 *1298:C 0.000134242
14 *352:14 *408:10 2.44117e-05
15 *352:14 *458:16 0
16 *352:14 *486:37 0.000439375
17 *352:14 *545:10 0
18 *352:14 *548:25 0
19 *352:14 *551:12 0.000430701
20 *352:14 *608:59 9.21981e-05
21 *352:14 *609:41 9.9025e-06
22 *352:29 *354:27 5.50106e-05
23 *352:29 *356:8 0.000136486
24 *352:29 *456:48 5.3304e-05
25 *352:29 *516:58 3.65271e-05
26 *217:10 *352:8 0.000180212
*RES
1 *1296:X *352:8 42.4329 
2 *352:8 *352:14 28.5057 
3 *352:14 *1391:A1 30.2914 
4 *352:14 *352:29 32.5271 
5 *352:29 *1300:B 23 
*END

*D_NET *353 0.0124442
*CONN
*I *1374:A2 I *D sky130_fd_sc_hd__a311o_2
*I *1370:B I *D sky130_fd_sc_hd__nand2_2
*I *1297:Y O *D sky130_fd_sc_hd__nand2_2
*CAP
1 *1374:A2 6.14166e-05
2 *1370:B 0
3 *1297:Y 0.000305364
4 *353:34 0.00154817
5 *353:22 0.00183942
6 *353:16 0.00161237
7 *353:10 0.0016879
8 *1374:A2 *1374:A3 4.91451e-05
9 *1374:A2 *426:6 1.00117e-05
10 *1374:A2 *547:14 4.17736e-05
11 *1374:A2 *552:24 2.64616e-05
12 *353:10 *435:20 2.46906e-05
13 *353:10 *552:59 5.79559e-05
14 *353:16 *1375:B1 0.000236202
15 *353:16 *1473:CLK 0.000103065
16 *353:16 *427:6 1.95443e-05
17 *353:16 *511:22 0.000150242
18 *353:22 *1389:A1 4.6318e-06
19 *353:22 *1502:A 0
20 *353:22 *547:14 9.75779e-05
21 *353:22 *552:24 9.17998e-05
22 *353:22 *610:70 0.000185755
23 *353:34 *1488:CLK 0.000120171
24 *353:34 *508:123 2.26497e-05
25 *353:34 *511:22 0.000147778
26 *353:34 *511:37 9.28078e-06
27 *353:34 *515:26 4.15283e-06
28 *353:34 *547:42 0.00269531
29 *353:34 *550:16 0.000144631
30 *353:34 *550:48 0.000782712
31 *353:34 *551:61 2.31209e-05
32 *1473:D *353:16 2.11102e-05
33 *11:15 *353:34 1.92442e-05
34 *13:15 *353:34 0.000200528
35 *79:8 *353:10 0
36 *342:31 *353:10 0.000100069
*RES
1 *1297:Y *353:10 43.4686 
2 *353:10 *353:16 49.2021 
3 *353:16 *353:22 19.6607 
4 *353:22 *353:34 37.8805 
5 *353:34 *1370:B 38 
6 *353:22 *1374:A2 24.4811 
*END

*D_NET *354 0.00428723
*CONN
*I *1300:A_N I *D sky130_fd_sc_hd__nand2b_2
*I *1299:B_N I *D sky130_fd_sc_hd__and4bb_2
*I *1298:X O *D sky130_fd_sc_hd__and4_2
*CAP
1 *1300:A_N 0
2 *1299:B_N 0.000382641
3 *1298:X 0.000132395
4 *354:27 0.000409909
5 *354:10 0.000924944
6 *1299:B_N *458:8 5.50049e-05
7 *354:10 *1298:B 1.94812e-05
8 *354:10 *1298:C 0
9 *354:10 *545:27 4.81429e-05
10 *354:27 *1298:C 0
11 *354:27 *1503:A 0.000267167
12 *354:27 *1506:A 9.41704e-05
13 *354:27 *456:48 0.000451307
14 *354:27 *545:27 9.96671e-05
15 *354:27 *551:12 1.21972e-05
16 *1299:C *1299:B_N 0.000133448
17 *46:12 *354:27 3.18198e-05
18 *46:20 *354:27 0.000902959
19 *47:12 *354:10 2.12178e-05
20 *198:14 *1299:B_N 7.44161e-06
21 *235:18 *1299:B_N 0.000149517
22 *346:29 *1299:B_N 8.87886e-05
23 *352:29 *354:27 5.50106e-05
*RES
1 *1298:X *354:10 40.175 
2 *354:10 *1299:B_N 45.1982 
3 *354:10 *354:27 28.9614 
4 *354:27 *1300:A_N 23 
*END

*D_NET *355 0.00335949
*CONN
*I *1378:C1 I *D sky130_fd_sc_hd__a311o_2
*I *1363:B1 I *D sky130_fd_sc_hd__a21o_2
*I *1299:X O *D sky130_fd_sc_hd__and4bb_2
*CAP
1 *1378:C1 4.9466e-05
2 *1363:B1 9.34725e-05
3 *1299:X 0.000570177
4 *355:20 0.000279274
5 *355:10 0.000805444
6 *1363:B1 *1363:A1 0.000100069
7 *1363:B1 *383:51 0.000364338
8 *1363:B1 *418:36 0.000102389
9 *1363:B1 *431:10 3.22051e-05
10 *1378:C1 *1362:A 5.3304e-05
11 *1378:C1 *356:20 5.94125e-05
12 *1378:C1 *399:16 5.15096e-05
13 *1378:C1 *430:20 5.3304e-05
14 *355:10 *356:8 0
15 *355:10 *356:20 3.70094e-05
16 *355:10 *399:16 0.000211768
17 *355:10 *456:86 0.000161316
18 *355:10 *486:20 4.79458e-06
19 *355:10 *514:41 0
20 *355:10 *516:58 0
21 *355:10 *637:10 0
22 *355:20 *1362:A 8.29713e-05
23 *355:20 *383:51 0.000144501
24 *355:20 *417:35 4.2812e-06
25 *189:30 *355:10 9.84851e-05
*RES
1 *1299:X *355:10 48.0464 
2 *355:10 *355:20 48.3764 
3 *355:20 *1363:B1 26.9564 
4 *355:10 *1378:C1 39.4707 
*END

*D_NET *356 0.0105582
*CONN
*I *1305:B1 I *D sky130_fd_sc_hd__a21o_2
*I *1375:B1 I *D sky130_fd_sc_hd__a21o_2
*I *1390:A1 I *D sky130_fd_sc_hd__o311a_2
*I *1381:A1 I *D sky130_fd_sc_hd__o311a_2
*I *1372:A1 I *D sky130_fd_sc_hd__o211a_2
*I *1384:A1 I *D sky130_fd_sc_hd__o21a_2
*I *1367:C1 I *D sky130_fd_sc_hd__o221ai_2
*I *1300:Y O *D sky130_fd_sc_hd__nand2b_2
*CAP
1 *1305:B1 0.000161482
2 *1375:B1 0.000447664
3 *1390:A1 0
4 *1381:A1 0
5 *1372:A1 7.73356e-05
6 *1384:A1 0.000233458
7 *1367:C1 0.000306795
8 *1300:Y 0.000361452
9 *356:82 0.000684349
10 *356:75 0.000120935
11 *356:45 0.000424435
12 *356:28 0.000530039
13 *356:24 0.000296367
14 *356:20 0.000775066
15 *356:10 0.000634036
16 *356:8 0.000361452
17 *1305:B1 *1301:C_N 0
18 *1305:B1 *1362:A 4.00259e-06
19 *1305:B1 *430:20 0.000157172
20 *1367:C1 *1366:A2 9.3843e-05
21 *1367:C1 *1367:A1 1.50083e-05
22 *1367:C1 *361:18 0.000326524
23 *1367:C1 *398:34 4.51797e-05
24 *1367:C1 *401:14 1.01436e-05
25 *1367:C1 *420:24 1.53755e-05
26 *1367:C1 *508:34 4.51431e-05
27 *1372:A1 *422:8 0
28 *1372:A1 *426:18 2.75733e-06
29 *1372:A1 *435:20 8.24128e-05
30 *1372:A1 *544:34 1.44678e-05
31 *1375:B1 *426:18 2.33476e-05
32 *1375:B1 *429:10 0.000443679
33 *1375:B1 *439:8 1.14452e-05
34 *1375:B1 *514:41 0
35 *1384:A1 *1384:B1 3.91386e-05
36 *1384:A1 *419:16 0.000137651
37 *1384:A1 *435:20 0.000409126
38 *356:8 *458:16 0
39 *356:8 *486:20 0
40 *356:8 *487:14 4.08537e-05
41 *356:8 *514:41 3.83778e-05
42 *356:8 *516:58 0
43 *356:20 *1362:A 6.82343e-05
44 *356:20 *1362:B 5.94125e-05
45 *356:20 *417:16 7.7201e-05
46 *356:20 *417:35 0
47 *356:20 *418:8 2.49733e-05
48 *356:20 *430:20 1.89178e-05
49 *356:20 *431:10 0
50 *356:20 *431:20 0
51 *356:20 *437:10 2.76611e-06
52 *356:20 *514:41 7.76364e-06
53 *356:24 *418:21 0.000304181
54 *356:24 *420:16 0.000315384
55 *356:28 *1367:B1 0.000443195
56 *356:28 *418:21 5.56356e-05
57 *356:28 *420:16 0.000487632
58 *356:45 *422:8 0
59 *356:45 *544:34 1.19692e-05
60 *356:45 *552:59 0
61 *356:75 *431:20 3.70961e-05
62 *356:75 *432:26 2.42715e-05
63 *356:75 *552:59 0.000167354
64 *356:82 *431:20 0
65 *356:82 *433:10 0.000184057
66 *356:82 *437:10 4.45037e-05
67 *356:82 *439:8 0.000137788
68 *356:82 *549:29 2.41176e-05
69 *1372:C1 *1384:A1 2.93104e-06
70 *1378:C1 *356:20 5.94125e-05
71 *83:8 *1375:B1 7.74361e-05
72 *342:14 *1384:A1 9.67842e-05
73 *342:31 *1372:A1 4.49806e-05
74 *352:29 *356:8 0.000136486
75 *353:16 *1375:B1 0.000236202
76 *355:10 *356:8 0
77 *355:10 *356:20 3.70094e-05
*RES
1 *1300:Y *356:8 43.7793 
2 *356:8 *356:10 15 
3 *356:10 *356:20 22.6643 
4 *356:20 *356:24 18.48 
5 *356:24 *356:28 20.3857 
6 *356:28 *1367:C1 44.0279 
7 *356:28 *356:45 1.90571 
8 *356:45 *1384:A1 44.38 
9 *356:45 *1372:A1 39.7711 
10 *356:24 *356:75 32.61 
11 *356:75 *1381:A1 23 
12 *356:20 *356:82 5.075 
13 *356:82 *1390:A1 38 
14 *356:82 *1375:B1 49.7036 
15 *356:10 *1305:B1 27.0186 
*END

*D_NET *357 0.000396278
*CONN
*I *1305:A1 I *D sky130_fd_sc_hd__a21o_2
*I *1301:X O *D sky130_fd_sc_hd__or3b_2
*CAP
1 *1305:A1 0.000148544
2 *1301:X 0.000148544
3 *1305:A1 *430:20 9.91895e-05
*RES
1 *1301:X *1305:A1 48.0507 
*END

*D_NET *358 0.00493259
*CONN
*I *1389:A2 I *D sky130_fd_sc_hd__o21a_2
*I *1374:B1 I *D sky130_fd_sc_hd__a311o_2
*I *1382:A1 I *D sky130_fd_sc_hd__mux2_1
*I *1304:B1 I *D sky130_fd_sc_hd__a21o_2
*I *1302:Y O *D sky130_fd_sc_hd__nor2_2
*CAP
1 *1389:A2 0
2 *1374:B1 0
3 *1382:A1 0.000253459
4 *1304:B1 0
5 *1302:Y 0.000314638
6 *358:58 0.000210949
7 *358:42 0.000600916
8 *358:25 0.000848456
9 *358:14 0.000519668
10 *1382:A1 *549:19 5.50049e-05
11 *358:14 *1302:B 0.000151344
12 *358:14 *548:25 0.000238822
13 *358:14 *548:36 4.87235e-05
14 *358:14 *553:16 6.85548e-05
15 *358:25 *1302:B 6.7491e-05
16 *358:25 *1502:A 8.9391e-05
17 *358:25 *546:27 4.08641e-05
18 *358:25 *546:40 2.96051e-05
19 *358:25 *548:36 0.000197567
20 *358:42 *1501:A 0.000168995
21 *358:42 *438:10 2.65879e-05
22 *358:42 *547:14 2.64314e-05
23 *358:42 *549:6 7.36613e-05
24 *358:42 *551:61 0
25 *358:42 *555:51 0.000137242
26 *358:58 *1383:S 9.58714e-05
27 *358:58 *1389:B1 7.34858e-05
28 *358:58 *432:8 6.48049e-05
29 *358:58 *438:10 0.000197601
30 *358:58 *458:16 0.000218952
31 *358:58 *549:19 5.55371e-05
32 *358:58 *549:29 5.79715e-05
*RES
1 *1302:Y *358:14 44.815 
2 *358:14 *1304:B1 38 
3 *358:14 *358:25 19.0186 
4 *358:25 *1382:A1 23.6214 
5 *358:25 *358:42 39.3421 
6 *358:42 *1374:B1 23 
7 *1382:A1 *358:58 44.4421 
8 *358:58 *1389:A2 38 
*END

*D_NET *359 0.00189876
*CONN
*I *1304:A2 I *D sky130_fd_sc_hd__a21o_2
*I *1303:X O *D sky130_fd_sc_hd__a21o_2
*CAP
1 *1304:A2 0
2 *1303:X 0.000541631
3 *359:10 0.000541631
4 *359:10 *1303:A2 2.93845e-05
5 *359:10 *1377:C 2.26497e-05
6 *359:10 *430:10 0.000138727
7 *359:10 *486:50 2.02872e-05
8 *359:10 *545:27 8.27285e-05
9 *359:10 *548:25 7.10099e-05
10 *359:10 *548:36 2.44117e-05
11 *359:10 *551:38 0.000132927
12 *359:10 *610:70 0
13 *1284:B1 *359:10 1.84226e-05
14 *46:12 *359:10 0.000264564
15 *180:70 *359:10 1.03836e-05
*RES
1 *1303:X *359:10 47.1557 
2 *359:10 *1304:A2 38 
*END

*D_NET *360 0.000884068
*CONN
*I *1305:A2 I *D sky130_fd_sc_hd__a21o_2
*I *1304:X O *D sky130_fd_sc_hd__a21o_2
*CAP
1 *1305:A2 0
2 *1304:X 0.00019955
3 *360:10 0.00019955
4 *360:10 *1301:B 0.000137238
5 *360:10 *458:16 0.000139404
6 *360:10 *544:20 0.000155022
7 *360:10 *552:59 5.3304e-05
*RES
1 *1304:X *360:10 42.4329 
2 *360:10 *1305:A2 38 
*END

*D_NET *361 0.00444484
*CONN
*I *1366:A1 I *D sky130_fd_sc_hd__a21oi_2
*I *1305:X O *D sky130_fd_sc_hd__a21o_2
*CAP
1 *1366:A1 0
2 *1305:X 0.000108187
3 *361:18 0.000800592
4 *361:8 0.000908779
5 *361:8 *432:8 7.7501e-06
6 *361:8 *458:16 0
7 *361:8 *487:14 0.000161882
8 *361:18 *1366:A2 0.000213758
9 *361:18 *1367:A2 5.50049e-05
10 *361:18 *1367:B1 0.000163465
11 *361:18 *1367:B2 3.84098e-05
12 *361:18 *1386:A1 7.84431e-05
13 *361:18 *1386:B1_N 4.44329e-05
14 *361:18 *401:14 0.000221715
15 *361:18 *418:12 9.58714e-05
16 *361:18 *418:21 0.000101053
17 *361:18 *420:16 2.29399e-05
18 *361:18 *420:24 2.82066e-05
19 *361:18 *431:14 0.000144501
20 *361:18 *519:37 3.51209e-05
21 *361:18 *552:59 0.000776942
22 *361:18 *636:39 5.3304e-05
23 *361:18 *637:45 5.79559e-05
24 *1367:C1 *361:18 0.000326524
*RES
1 *1305:X *361:8 40.2579 
2 *361:8 *361:18 37.1229 
3 *361:18 *1366:A1 23 
*END

*D_NET *362 0.00321042
*CONN
*I *1308:B1 I *D sky130_fd_sc_hd__o21ai_2
*I *1316:B I *D sky130_fd_sc_hd__or2_2
*I *1317:B I *D sky130_fd_sc_hd__nand2_2
*I *1306:X O *D sky130_fd_sc_hd__a211o_2
*CAP
1 *1308:B1 0
2 *1316:B 0.000250733
3 *1317:B 3.5063e-05
4 *1306:X 0
5 *362:38 0.000209891
6 *362:8 0.000528272
7 *362:4 0.000452366
8 *1316:B *371:18 1.14762e-05
9 *1316:B *372:8 1.21972e-05
10 *1316:B *581:54 0.000125156
11 *1316:B *634:10 0.000133543
12 *1317:B *581:54 5.85486e-05
13 *1317:B *634:10 5.64492e-05
14 *362:8 *373:8 0.000178235
15 *362:8 *557:50 0.000321901
16 *362:38 *481:70 7.88924e-05
17 *362:38 *557:50 4.21048e-05
18 *1316:A *1316:B 5.16775e-05
19 *200:50 *362:38 0.000180544
20 *349:12 *362:8 0.000483374
*RES
1 *1306:X *362:4 23 
2 *362:4 *362:8 22.2914 
3 *362:8 *1317:B 38.8493 
4 *362:8 *1316:B 42.8057 
5 *362:4 *362:38 33.9357 
6 *362:38 *1308:B1 23 
*END

*D_NET *363 0.00122748
*CONN
*I *1308:A2 I *D sky130_fd_sc_hd__o21ai_2
*I *1307:Y O *D sky130_fd_sc_hd__a21oi_2
*CAP
1 *1308:A2 0
2 *1307:Y 0.000194524
3 *363:10 0.000194524
4 *363:10 *1307:B1 0.000154454
5 *363:10 *558:32 0.000127404
6 *363:10 *590:33 0.000140939
7 *164:24 *363:10 0.000201809
8 *350:22 *363:10 1.41129e-05
9 *350:32 *363:10 0.00019971
*RES
1 *1307:Y *363:10 43.4893 
2 *363:10 *1308:A2 38 
*END

*D_NET *364 0.00224699
*CONN
*I *1310:A2 I *D sky130_fd_sc_hd__a22o_2
*I *1319:A2 I *D sky130_fd_sc_hd__o22a_2
*I *1308:Y O *D sky130_fd_sc_hd__o21ai_2
*CAP
1 *1310:A2 2.05057e-05
2 *1319:A2 9.7041e-05
3 *1308:Y 0.000563421
4 *364:32 0.000269043
5 *364:10 0.000411925
6 *1310:A2 *1310:B1 0.000119379
7 *1310:A2 *589:35 0.000121707
8 *1319:A2 *588:35 5.23258e-05
9 *1319:A2 *588:54 4.2573e-05
10 *364:10 *588:54 4.77213e-05
11 *364:32 *365:25 8.62783e-05
12 *364:32 *367:8 3.00262e-05
13 *364:32 *481:70 4.2099e-05
14 *364:32 *590:33 0
15 *200:50 *364:32 0.000201202
16 *223:26 *364:10 0.000141738
*RES
1 *1308:Y *364:10 43.0543 
2 *364:10 *1319:A2 39.74 
3 *1308:Y *364:32 42.7229 
4 *364:32 *1310:A2 39.305 
*END

*D_NET *365 0.00122057
*CONN
*I *1311:B I *D sky130_fd_sc_hd__or2_2
*I *1310:B1 I *D sky130_fd_sc_hd__a22o_2
*I *1309:X O *D sky130_fd_sc_hd__mux2_1
*CAP
1 *1311:B 0
2 *1310:B1 0.000162571
3 *1309:X 0
4 *365:25 0.000211017
5 *365:4 0.000373588
6 *1310:B1 *1310:A1 5.79559e-05
7 *1310:B1 *589:35 5.58223e-05
8 *365:25 *367:8 8.62783e-05
9 *365:25 *590:33 5.54828e-05
10 *1310:A2 *1310:B1 0.000119379
11 *164:16 *365:25 1.21972e-05
12 *364:32 *365:25 8.62783e-05
*RES
1 *1309:X *365:4 23 
2 *365:4 *1310:B1 26.5007 
3 *365:4 *365:25 33.4179 
4 *365:25 *1311:B 23 
*END

*D_NET *366 0.000883422
*CONN
*I *1315:B1 I *D sky130_fd_sc_hd__a31o_2
*I *1310:X O *D sky130_fd_sc_hd__a22o_2
*CAP
1 *1315:B1 0
2 *1310:X 0.000262876
3 *366:10 0.000262876
4 *366:10 *367:8 7.32722e-05
5 *366:10 *589:35 0.000123766
6 *366:10 *610:43 0.000160631
*RES
1 *1310:X *366:10 42.785 
2 *366:10 *1315:B1 38 
*END

*D_NET *367 0.0010668
*CONN
*I *1315:A1 I *D sky130_fd_sc_hd__a31o_2
*I *1311:X O *D sky130_fd_sc_hd__or2_2
*CAP
1 *1315:A1 0
2 *1311:X 0.000272712
3 *367:8 0.000272712
4 *367:8 *369:18 0.000150318
5 *367:8 *371:18 0
6 *367:8 *481:70 0.000141027
7 *367:8 *610:43 4.04592e-05
8 *364:32 *367:8 3.00262e-05
9 *365:25 *367:8 8.62783e-05
10 *366:10 *367:8 7.32722e-05
*RES
1 *1311:X *367:8 44.1314 
2 *367:8 *1315:A1 38 
*END

*D_NET *368 0.00314177
*CONN
*I *1314:A2 I *D sky130_fd_sc_hd__a21bo_2
*I *1312:Y O *D sky130_fd_sc_hd__nand4_2
*CAP
1 *1314:A2 0
2 *1312:Y 0.000457595
3 *368:12 0.000125038
4 *368:6 0.000582632
5 *368:6 *1129:A 0.000302643
6 *368:6 *1543:A 9.1624e-05
7 *368:6 *558:28 0.000472823
8 *368:6 *560:109 5.3304e-05
9 *368:6 *593:6 6.99589e-05
10 *368:6 *594:52 0.000230492
11 *368:12 *446:22 0.000208485
12 *368:12 *592:10 0.000101071
13 *368:12 *592:14 3.61511e-05
14 *1138:B *368:12 0
15 *151:58 *368:6 0.000268868
16 *180:32 *368:6 5.67058e-05
17 *180:54 *368:6 5.50106e-05
18 *225:10 *368:6 2.93747e-05
*RES
1 *1312:Y *368:6 37.9143 
2 *368:6 *368:12 32.9621 
3 *368:12 *1314:A2 23 
*END

*D_NET *369 0.00381152
*CONN
*I *1315:A2 I *D sky130_fd_sc_hd__a31o_2
*I *1313:X O *D sky130_fd_sc_hd__a221o_2
*CAP
1 *1315:A2 0
2 *1313:X 7.54321e-05
3 *369:18 0.000772825
4 *369:10 0.000848257
5 *369:10 *607:49 0
6 *369:18 *481:52 3.19804e-05
7 *369:18 *508:87 0.000273379
8 *369:18 *517:70 0.000512861
9 *369:18 *577:43 0.000796534
10 *369:18 *610:43 0.000203683
11 *369:18 *617:100 4.96041e-05
12 *162:31 *369:10 9.66498e-05
13 *367:8 *369:18 0.000150318
*RES
1 *1313:X *369:10 47.3775 
2 *369:10 *369:18 28.4007 
3 *369:18 *1315:A2 23 
*END

*D_NET *370 0.00207184
*CONN
*I *1315:A3 I *D sky130_fd_sc_hd__a31o_2
*I *1314:X O *D sky130_fd_sc_hd__a21bo_2
*CAP
1 *1315:A3 0.000212756
2 *1314:X 0.000235678
3 *370:10 0.000448434
4 *1315:A3 *615:84 0.000138007
5 *370:10 *481:52 0.000143655
6 *370:10 *481:62 0.000249554
7 *370:10 *508:87 0
8 *370:10 *517:70 0
9 *370:10 *589:35 5.79466e-05
10 *370:10 *610:43 8.66656e-05
11 *164:6 *370:10 0.0002246
12 *164:38 *370:10 0.000216471
13 *221:20 *370:10 5.80693e-05
*RES
1 *1314:X *370:10 46.2236 
2 *370:10 *1315:A3 41.9771 
*END

*D_NET *371 0.00446715
*CONN
*I *1322:A1 I *D sky130_fd_sc_hd__a21o_2
*I *1315:X O *D sky130_fd_sc_hd__a31o_2
*CAP
1 *1322:A1 0
2 *1315:X 0.000131922
3 *371:18 0.00151272
4 *371:8 0.00164464
5 *371:8 *615:84 5.43352e-05
6 *371:18 *372:8 0.000136743
7 *371:18 *558:53 0.000285083
8 *371:18 *581:67 0
9 *371:18 *586:25 0
10 *371:18 *590:33 0.000211505
11 *371:18 *615:63 0
12 *1117:A *371:18 5.90856e-07
13 *1117:B *371:18 7.54223e-05
14 *1316:A *371:18 2.74535e-05
15 *1316:B *371:18 1.14762e-05
16 *121:37 *371:18 0
17 *200:73 *371:18 0
18 *213:38 *371:18 0
19 *213:72 *371:18 5.77119e-05
20 *223:26 *371:18 0.000175781
21 *231:10 *371:18 1.3221e-05
22 *231:14 *371:18 9.41704e-05
23 *349:8 *371:18 1.95144e-05
24 *350:22 *371:18 8.11914e-06
25 *350:32 *371:18 6.74513e-06
26 *367:8 *371:18 0
*RES
1 *1315:X *371:8 40.5271 
2 *371:8 *371:18 36.6879 
3 *371:18 *1322:A1 23 
*END

*D_NET *372 0.0016425
*CONN
*I *1320:S I *D sky130_fd_sc_hd__mux2_1
*I *1318:A I *D sky130_fd_sc_hd__nand2_2
*I *1316:X O *D sky130_fd_sc_hd__or2_2
*CAP
1 *1320:S 0.000127942
2 *1318:A 0.000167103
3 *1316:X 5.57278e-05
4 *372:8 0.000350772
5 *1318:A *374:8 5.85486e-05
6 *1318:A *375:8 8.32867e-05
7 *1318:A *557:71 6.69637e-06
8 *1320:S *557:71 5.30448e-05
9 *1320:S *581:54 7.37814e-06
10 *1320:S *634:10 0
11 *1135:A2 *1320:S 5.50049e-05
12 *1316:A *372:8 9.65364e-05
13 *1316:B *372:8 1.21972e-05
14 *121:14 *1318:A 0.000257316
15 *121:14 *1320:S 0.00014483
16 *212:20 *1320:S 2.93747e-05
17 *371:18 *372:8 0.000136743
*RES
1 *1316:X *372:8 39.5743 
2 *372:8 *1318:A 41.6664 
3 *372:8 *1320:S 41.2314 
*END

*D_NET *373 0.000771439
*CONN
*I *1318:B I *D sky130_fd_sc_hd__nand2_2
*I *1317:Y O *D sky130_fd_sc_hd__nand2_2
*CAP
1 *1318:B 0
2 *1317:Y 0.000187068
3 *373:8 0.000187068
4 *373:8 *557:50 8.66936e-05
5 *121:8 *373:8 5.12254e-05
6 *349:12 *373:8 8.11489e-05
7 *362:8 *373:8 0.000178235
*RES
1 *1317:Y *373:8 27.4536 
2 *373:8 *1318:B 23 
*END

*D_NET *374 0.00131129
*CONN
*I *1319:B1 I *D sky130_fd_sc_hd__o22a_2
*I *1321:A2 I *D sky130_fd_sc_hd__a22o_2
*I *1318:Y O *D sky130_fd_sc_hd__nand2_2
*CAP
1 *1319:B1 2.45968e-05
2 *1321:A2 9.25448e-05
3 *1318:Y 0.000182901
4 *374:10 0.000117142
5 *374:8 0.000182901
6 *1319:B1 *621:93 4.34745e-05
7 *1321:A2 *585:45 0.00011648
8 *1321:A2 *621:93 0.000244301
9 *374:8 *1307:A1 2.61151e-05
10 *374:8 *375:8 0.00017738
11 *374:8 *581:54 3.56575e-05
12 *1318:A *374:8 5.85486e-05
13 *121:14 *374:8 9.2467e-06
*RES
1 *1318:Y *374:8 41.3143 
2 *374:8 *374:10 15 
3 *374:10 *1321:A2 25.7343 
4 *374:10 *1319:B1 23.6214 
*END

*D_NET *375 0.0010214
*CONN
*I *1322:A2 I *D sky130_fd_sc_hd__a21o_2
*I *1319:X O *D sky130_fd_sc_hd__o22a_2
*CAP
1 *1322:A2 0
2 *1319:X 0.000199335
3 *375:8 0.000199335
4 *375:8 *1307:A1 7.89883e-05
5 *375:8 *557:71 0.000283074
6 *1318:A *375:8 8.32867e-05
7 *374:8 *375:8 0.00017738
*RES
1 *1319:X *375:8 43.075 
2 *375:8 *1322:A2 38 
*END

*D_NET *376 0.00179986
*CONN
*I *1321:B1 I *D sky130_fd_sc_hd__a22o_2
*I *1326:B I *D sky130_fd_sc_hd__or2_2
*I *1320:X O *D sky130_fd_sc_hd__mux2_1
*CAP
1 *1321:B1 0
2 *1326:B 0.000202916
3 *1320:X 3.65899e-05
4 *376:21 0.000327646
5 *376:6 0.000567152
6 *376:21 *1321:B2 2.08253e-05
7 *376:21 *1326:A 8.44497e-05
8 *376:21 *377:8 0
9 *376:21 *378:8 5.33831e-05
10 *376:21 *583:33 0.000153251
11 *376:21 *585:28 1.14452e-05
12 *1256:A *1326:B 6.70361e-05
13 *1320:A0 *1326:B 2.02872e-05
14 *1320:A0 *376:6 2.93845e-05
15 *190:8 *376:21 8.62783e-05
16 *197:38 *376:21 4.67227e-05
17 *212:10 *376:21 9.24887e-05
*RES
1 *1320:X *376:6 23.6214 
2 *376:6 *1326:B 25.5479 
3 *376:6 *376:21 37.1879 
4 *376:21 *1321:B1 23 
*END

*D_NET *377 0.00129188
*CONN
*I *1322:B1 I *D sky130_fd_sc_hd__a21o_2
*I *1321:X O *D sky130_fd_sc_hd__a22o_2
*CAP
1 *1322:B1 0
2 *1321:X 0.000251324
3 *377:8 0.000251324
4 *377:8 *1307:A1 3.10276e-05
5 *377:8 *585:28 2.39523e-05
6 *377:8 *585:45 0.000380637
7 *212:10 *377:8 0.000353617
8 *376:21 *377:8 0
*RES
1 *1321:X *377:8 44.4836 
2 *377:8 *1322:B1 38 
*END

*D_NET *378 0.00352603
*CONN
*I *1327:A I *D sky130_fd_sc_hd__nand3_2
*I *1343:D I *D sky130_fd_sc_hd__and4b_2
*I *1322:X O *D sky130_fd_sc_hd__a21o_2
*CAP
1 *1327:A 0.00027314
2 *1343:D 0
3 *1322:X 0
4 *378:8 0.000790659
5 *378:6 0.000517519
6 *1327:A *1327:C 9.5877e-05
7 *1327:A *1344:S 5.3304e-05
8 *1327:A *383:23 8.51515e-05
9 *1327:A *635:12 0.000211125
10 *378:8 *382:8 0.000130225
11 *378:8 *456:70 2.95125e-05
12 *378:8 *508:61 0.000349377
13 *378:8 *556:8 4.99753e-06
14 *378:8 *556:27 5.94125e-05
15 *378:8 *557:71 0
16 *378:8 *635:12 0.000308218
17 *1376:B1 *1327:A 1.59094e-05
18 *189:34 *378:8 5.26431e-05
19 *189:40 *378:8 2.96154e-05
20 *189:70 *378:8 0
21 *190:8 *378:8 1.69668e-05
22 *212:10 *378:8 0.000142572
23 *342:14 *1327:A 0.000199613
24 *342:14 *378:8 0.000106814
25 *376:21 *378:8 5.33831e-05
*RES
1 *1322:X *378:6 38 
2 *378:6 *378:8 13.1743 
3 *378:8 *1343:D 38 
4 *378:8 *1327:A 44.4836 
*END

*D_NET *379 0.000504043
*CONN
*I *1325:A2 I *D sky130_fd_sc_hd__a22o_2
*I *1323:Y O *D sky130_fd_sc_hd__nor2_2
*CAP
1 *1325:A2 0.000177536
2 *1323:Y 0.000177536
3 *1325:A2 *1325:B1 6.92053e-05
4 *1325:A2 *630:76 6.17437e-06
5 *1325:A2 *630:93 2.02872e-05
6 *1325:A2 *630:108 5.3304e-05
*RES
1 *1323:Y *1325:A2 49.1952 
*END

*D_NET *380 0.000730711
*CONN
*I *1325:B1 I *D sky130_fd_sc_hd__a22o_2
*I *1324:Y O *D sky130_fd_sc_hd__nor2_2
*CAP
1 *1325:B1 0.000115127
2 *1324:Y 0.000129089
3 *380:10 0.000244216
4 *1325:B1 *630:93 1.75562e-05
5 *380:10 *1018:A 0
6 *380:10 *614:36 1.73399e-05
7 *1324:B *380:10 0.000138177
8 *1325:A2 *1325:B1 6.92053e-05
*RES
1 *1324:Y *380:10 40.5271 
2 *380:10 *1325:B1 40.7136 
*END

*D_NET *381 0.00769097
*CONN
*I *1327:B I *D sky130_fd_sc_hd__nand3_2
*I *1343:C I *D sky130_fd_sc_hd__and4b_2
*I *1325:X O *D sky130_fd_sc_hd__a22o_2
*CAP
1 *1327:B 0.000122421
2 *1343:C 8.02144e-05
3 *1325:X 0.000357132
4 *381:18 0.00163564
5 *381:12 0.00179014
6 *1327:B *1327:C 0.000261333
7 *1343:C *636:31 4.67488e-05
8 *381:12 *1310:A1 0.000156821
9 *381:12 *1541:A 5.67058e-05
10 *381:12 *581:18 6.08876e-05
11 *381:12 *588:10 5.50049e-05
12 *381:12 *590:8 0.000399297
13 *381:12 *590:51 9.45591e-05
14 *381:12 *620:38 5.67058e-05
15 *381:18 *1006:A 7.07958e-05
16 *381:18 *1321:B2 9.18082e-05
17 *381:18 *1326:A 7.41616e-05
18 *381:18 *1327:C 2.40851e-05
19 *381:18 *382:8 0.000317583
20 *381:18 *556:117 0.000134196
21 *381:18 *581:46 0.000172963
22 *381:18 *583:33 5.92738e-07
23 *381:18 *588:10 3.28994e-05
24 *381:18 *588:35 5.32275e-05
25 *381:18 *594:16 0.000150219
26 *381:18 *594:27 0
27 *381:18 *596:85 0
28 *381:18 *616:53 0.000101944
29 *1286:A2 *381:18 1.86371e-05
30 *121:95 *381:18 5.06226e-05
31 *189:70 *381:18 0.00037403
32 *199:14 *381:18 0
33 *280:134 *381:18 0.00015795
34 *317:8 *381:18 0.000141888
35 *343:10 *1327:B 0.00024985
36 *343:10 *381:18 0.0002999
*RES
1 *1325:X *381:12 48.3157 
2 *381:12 *381:18 26.8664 
3 *381:18 *1343:C 39.0979 
4 *381:18 *1327:B 41.6664 
*END

*D_NET *382 0.00289609
*CONN
*I *1327:C I *D sky130_fd_sc_hd__nand3_2
*I *1343:B I *D sky130_fd_sc_hd__and4b_2
*I *1326:X O *D sky130_fd_sc_hd__or2_2
*CAP
1 *1327:C 0.000196089
2 *1343:B 0
3 *1326:X 0.000460654
4 *382:8 0.000656742
5 *382:8 *508:61 0.000343064
6 *1327:A *1327:C 9.5877e-05
7 *1327:B *1327:C 0.000261333
8 *189:70 *382:8 4.23714e-05
9 *342:14 *1327:C 0.000285342
10 *342:14 *382:8 8.27285e-05
11 *378:8 *382:8 0.000130225
12 *381:18 *1327:C 2.40851e-05
13 *381:18 *382:8 0.000317583
*RES
1 *1326:X *382:8 48.005 
2 *382:8 *1343:B 38 
3 *382:8 *1327:C 43.1164 
*END

*D_NET *383 0.00522363
*CONN
*I *1362:A I *D sky130_fd_sc_hd__nand2_2
*I *1378:A1 I *D sky130_fd_sc_hd__a311o_2
*I *1367:A1 I *D sky130_fd_sc_hd__o221ai_2
*I *1346:C1 I *D sky130_fd_sc_hd__a211o_2
*I *1344:S I *D sky130_fd_sc_hd__mux2_1
*I *1327:Y O *D sky130_fd_sc_hd__nand3_2
*CAP
1 *1362:A 0.000126452
2 *1378:A1 1.55489e-05
3 *1367:A1 0.000172282
4 *1346:C1 0.00024984
5 *1344:S 0.000191144
6 *1327:Y 0
7 *383:51 0.00040659
8 *383:25 0.000422122
9 *383:23 0.000703149
10 *383:4 0.000629704
11 *1344:S *1344:A0 4.00259e-06
12 *1346:C1 *401:14 0.000230808
13 *1346:C1 *636:39 2.71291e-05
14 *1346:C1 *637:45 8.21988e-05
15 *1362:A *430:20 0.000135627
16 *1367:A1 *398:34 9.28078e-06
17 *1367:A1 *401:14 0.000151907
18 *1367:A1 *636:39 9.31289e-05
19 *1378:A1 *430:20 5.47983e-06
20 *383:23 *419:6 1.41129e-05
21 *383:23 *419:16 0.000161877
22 *383:23 *636:31 0.000262864
23 *383:51 *1363:A1 3.59538e-05
24 *383:51 *419:6 5.50106e-05
25 *383:51 *430:20 5.68958e-05
26 *383:51 *636:31 4.5051e-05
27 *1305:B1 *1362:A 4.00259e-06
28 *1327:A *1344:S 5.3304e-05
29 *1327:A *383:23 8.51515e-05
30 *1363:B1 *383:51 0.000364338
31 *1367:C1 *1367:A1 1.50083e-05
32 *1376:B1 *1344:S 6.4652e-05
33 *1378:C1 *1362:A 5.3304e-05
34 *355:20 *1362:A 8.29713e-05
35 *355:20 *383:51 0.000144501
36 *356:20 *1362:A 6.82343e-05
*RES
1 *1327:Y *383:4 23 
2 *383:4 *1344:S 26.9979 
3 *383:4 *383:23 7.95429 
4 *383:23 *383:25 15 
5 *383:25 *1346:C1 42.205 
6 *383:25 *1367:A1 41.5836 
7 *383:23 *383:51 6.815 
8 *383:51 *1378:A1 23.4971 
9 *383:51 *1362:A 26.6457 
*END

*D_NET *384 0.00243088
*CONN
*I *1329:A2 I *D sky130_fd_sc_hd__o21ba_2
*I *1328:X O *D sky130_fd_sc_hd__mux2_1
*CAP
1 *1329:A2 0.000205989
2 *1328:X 0.000533168
3 *384:8 0.000739156
4 *1329:A2 *1329:B1_N 0
5 *1329:A2 *385:8 4.66053e-05
6 *1329:A2 *462:50 3.71706e-05
7 *384:8 *1519:A 5.10686e-05
8 *384:8 *568:36 0.000181125
9 *384:8 *572:31 0.000349807
10 *1329:A1 *1329:A2 3.61227e-05
11 *25:10 *1329:A2 0.000250667
*RES
1 *1328:X *384:8 45.7679 
2 *384:8 *1329:A2 42.7229 
*END

*D_NET *385 0.00176048
*CONN
*I *1334:C1 I *D sky130_fd_sc_hd__o211a_2
*I *1329:X O *D sky130_fd_sc_hd__o21ba_2
*CAP
1 *1334:C1 0.000420313
2 *1329:X 8.49544e-05
3 *385:8 0.000505267
4 *1334:C1 *1423:RESET_B 0.000159197
5 *1334:C1 *598:72 2.33744e-05
6 *385:8 *1329:B1_N 0.000164401
7 *1329:A2 *385:8 4.66053e-05
8 *1334:A1 *1334:C1 0.000264564
9 *25:10 *1334:C1 9.17998e-05
*RES
1 *1329:X *385:8 40.2579 
2 *385:8 *1334:C1 46.265 
*END

*D_NET *386 0.000924415
*CONN
*I *1334:A2 I *D sky130_fd_sc_hd__o211a_2
*I *1330:X O *D sky130_fd_sc_hd__mux2_1
*CAP
1 *1334:A2 0
2 *1330:X 0.000209061
3 *386:10 0.000209061
4 *386:10 *1337:A0 0.000160618
5 *386:10 *389:10 0.000162849
6 *386:10 *568:36 0.000182826
*RES
1 *1330:X *386:10 42.3086 
2 *386:10 *1334:A2 38 
*END

*D_NET *387 0.000381414
*CONN
*I *1333:A2 I *D sky130_fd_sc_hd__o22a_2
*I *1331:X O *D sky130_fd_sc_hd__mux2_1
*CAP
1 *1333:A2 0.000122338
2 *1331:X 0.000122338
3 *255:20 *1333:A2 0.000136738
*RES
1 *1331:X *1333:A2 47.5743 
*END

*D_NET *388 0.00705268
*CONN
*I *1333:B1 I *D sky130_fd_sc_hd__o22a_2
*I *1332:X O *D sky130_fd_sc_hd__mux2_1
*CAP
1 *1333:B1 0
2 *1332:X 0
3 *388:10 0.0012095
4 *388:4 0.0012095
5 *388:10 *1106:B 2.64616e-05
6 *388:10 *1107:A 0.00017208
7 *388:10 *1175:A 0.000674112
8 *388:10 *1177:A 0.000854066
9 *388:10 *1258:A 9.15444e-05
10 *388:10 *1332:A0 3.90708e-05
11 *388:10 *394:20 0.000175903
12 *388:10 *396:8 0.00063759
13 *388:10 *461:18 5.50049e-05
14 *388:10 *463:14 0.000201169
15 *388:10 *492:37 7.88828e-05
16 *388:10 *563:30 0.000435854
17 *388:10 *571:25 0.000349206
18 *388:10 *602:126 7.15126e-05
19 *1340:A1 *388:10 0.00016121
20 *127:8 *388:10 8.48502e-06
21 *203:8 *388:10 0.000431551
22 *204:24 *388:10 0.000169981
*RES
1 *1332:X *388:4 23 
2 *388:4 *388:10 49.6757 
3 *388:10 *1333:B1 38 
*END

*D_NET *389 0.00121325
*CONN
*I *1334:B1 I *D sky130_fd_sc_hd__o211a_2
*I *1333:X O *D sky130_fd_sc_hd__o22a_2
*CAP
1 *1334:B1 0
2 *1333:X 0.000325503
3 *389:10 0.000325503
4 *389:10 *1107:A 0.000127659
5 *389:10 *1107:B 1.75427e-05
6 *389:10 *1173:A 9.5877e-05
7 *389:10 *1337:A0 1.85275e-05
8 uio_oe[6] *389:10 5.93092e-05
9 *204:24 *389:10 8.04817e-05
10 *386:10 *389:10 0.000162849
*RES
1 *1333:X *389:10 44.1729 
2 *389:10 *1334:B1 38 
*END

*D_NET *390 0.0031171
*CONN
*I *1342:B1 I *D sky130_fd_sc_hd__a31o_2
*I *1334:X O *D sky130_fd_sc_hd__o211a_2
*CAP
1 *1342:B1 0.000188349
2 *1334:X 0.000514858
3 *390:12 0.000703207
4 *1342:B1 *391:10 1.12487e-05
5 *390:12 *392:10 0.000115108
6 *390:12 *463:60 0.000645037
7 *390:12 *467:28 4.21281e-05
8 *1336:A *390:12 0
9 *37:26 *1342:B1 0.000383169
10 *107:10 *390:12 0.000100069
11 *255:10 *1342:B1 0.000360624
12 *255:10 *390:12 5.3304e-05
*RES
1 *1334:X *390:12 48.3157 
2 *390:12 *1342:B1 43.4271 
*END

*D_NET *391 0.00163459
*CONN
*I *1336:B I *D sky130_fd_sc_hd__or2_2
*I *1335:X O *D sky130_fd_sc_hd__mux2_1
*CAP
1 *1336:B 0
2 *1335:X 0.000383203
3 *391:10 0.000383203
4 *391:10 *1433:RESET_B 0.000268662
5 *391:10 *1437:RESET_B 0
6 *391:10 *457:20 0.000267167
7 *1342:B1 *391:10 1.12487e-05
8 *37:26 *391:10 9.21347e-06
9 *255:10 *391:10 0.000311895
*RES
1 *1335:X *391:10 46.0786 
2 *391:10 *1336:B 38 
*END

*D_NET *392 0.00176829
*CONN
*I *1342:A2 I *D sky130_fd_sc_hd__a31o_2
*I *1336:X O *D sky130_fd_sc_hd__or2_2
*CAP
1 *1342:A2 4.37797e-05
2 *1336:X 0.000572424
3 *392:10 0.000616204
4 *1342:A2 *457:20 5.60721e-05
5 *392:10 *457:33 0
6 *392:10 *467:28 2.17486e-05
7 *392:10 *568:46 0.000151657
8 *1336:A *392:10 5.50106e-05
9 *37:14 *392:10 9.28078e-06
10 *37:26 *392:10 3.28384e-05
11 *107:10 *392:10 0
12 *255:10 *392:10 9.41704e-05
13 *390:12 *392:10 0.000115108
*RES
1 *1336:X *392:10 46.4514 
2 *392:10 *1342:A2 38.6266 
*END

*D_NET *393 0.00160633
*CONN
*I *1341:A2 I *D sky130_fd_sc_hd__o21a_2
*I *1337:X O *D sky130_fd_sc_hd__mux2_1
*CAP
1 *1341:A2 0
2 *1337:X 0.000359327
3 *393:10 0.000359327
4 *393:10 *1337:A1 0.000203622
5 *393:10 *470:21 0.000124581
6 *393:10 *568:36 0.000221992
7 *1341:A1 *393:10 0.000230671
8 *176:14 *393:10 0.000106814
*RES
1 *1337:X *393:10 45.25 
2 *393:10 *1341:A2 38 
*END

*D_NET *394 0.00701274
*CONN
*I *1340:A2 I *D sky130_fd_sc_hd__o22a_2
*I *1338:X O *D sky130_fd_sc_hd__mux2_1
*CAP
1 *1340:A2 0
2 *1338:X 0.000153239
3 *394:20 0.000832814
4 *394:14 0.0022401
5 *394:8 0.00156053
6 *394:8 *1427:SET_B 9.88678e-05
7 *394:8 *492:50 0.000222113
8 *394:20 *1259:A 0
9 *394:20 *1425:RESET_B 0
10 *394:20 *1426:RESET_B 0
11 *394:20 *1434:RESET_B 0
12 *394:20 *395:10 0.000121976
13 *394:20 *457:66 0.000347802
14 *394:20 *457:75 0.000204672
15 *394:20 *457:172 0.000156379
16 *394:20 *463:14 6.82416e-05
17 *394:20 *471:21 2.95125e-05
18 *394:20 *471:32 5.72749e-05
19 *394:20 *571:56 0.000392593
20 *1340:B2 *394:20 5.3304e-05
21 *259:40 *394:20 5.19696e-05
22 *262:12 *394:14 0.000245446
23 *388:10 *394:20 0.000175903
*RES
1 *1338:X *394:8 42.0186 
2 *394:8 *394:14 49.6786 
3 *394:14 *394:20 33.0421 
4 *394:20 *1340:A2 23 
*END

*D_NET *395 0.000934146
*CONN
*I *1340:B1 I *D sky130_fd_sc_hd__o22a_2
*I *1339:X O *D sky130_fd_sc_hd__mux2_1
*CAP
1 *1340:B1 0
2 *1339:X 0.000300738
3 *395:10 0.000300738
4 *395:10 *462:27 5.25011e-05
5 *395:10 *571:56 1.15883e-05
6 *259:40 *395:10 0.000146605
7 *394:20 *395:10 0.000121976
*RES
1 *1339:X *395:10 42.3086 
2 *395:10 *1340:B1 38 
*END

*D_NET *396 0.0038856
*CONN
*I *1341:B1 I *D sky130_fd_sc_hd__o21a_2
*I *1340:X O *D sky130_fd_sc_hd__o22a_2
*CAP
1 *1341:B1 0.000525106
2 *1340:X 0.000536064
3 *396:8 0.00106117
4 *1341:B1 *1436:CLK 8.46331e-05
5 *1341:B1 *397:8 0.000418773
6 *1341:B1 *457:49 5.10669e-05
7 *1329:A1 *1341:B1 0.000385605
8 *117:10 *1341:B1 0.000130799
9 *176:14 *1341:B1 0
10 *263:8 *1341:B1 5.47927e-05
11 *388:10 *396:8 0.00063759
*RES
1 *1340:X *396:8 45.2914 
2 *396:8 *1341:B1 49.9314 
*END

*D_NET *397 0.00526223
*CONN
*I *1342:A3 I *D sky130_fd_sc_hd__a31o_2
*I *1341:X O *D sky130_fd_sc_hd__o21a_2
*CAP
1 *1342:A3 0
2 *1341:X 0.000262812
3 *397:26 0.000866385
4 *397:8 0.0011292
5 *397:26 *1437:CLK 5.72853e-05
6 *397:26 *457:20 0.000233367
7 *397:26 *457:33 8.62633e-05
8 *397:26 *474:39 0.00115149
9 *397:26 *488:22 3.89819e-05
10 *397:26 *573:47 0
11 *397:26 *573:62 3.02372e-05
12 *1341:A1 *397:8 4.55155e-05
13 *1341:B1 *397:8 0.000418773
14 *176:14 *397:8 5.95981e-05
15 *177:41 *397:26 0.000593353
16 *255:20 *397:26 0.000288975
*RES
1 *1341:X *397:8 43.9554 
2 *397:8 *397:26 40.0621 
3 *397:26 *1342:A3 23 
*END

*D_NET *398 0.00866285
*CONN
*I *1344:A0 I *D sky130_fd_sc_hd__mux2_1
*I *1343:A_N I *D sky130_fd_sc_hd__and4b_2
*I *1367:A2 I *D sky130_fd_sc_hd__o221ai_2
*I *1342:X O *D sky130_fd_sc_hd__a31o_2
*CAP
1 *1344:A0 3.49358e-05
2 *1343:A_N 0
3 *1367:A2 1.9139e-05
4 *1342:X 0.00144317
5 *398:34 0.000800462
6 *398:22 0.00099361
7 *398:14 0.000354932
8 *398:12 0.00155088
9 *1367:A2 *1367:B1 5.3304e-05
10 *398:12 *1430:RESET_B 2.17486e-05
11 *398:12 *429:26 0.000103647
12 *398:12 *457:12 1.44715e-05
13 *398:12 *457:16 1.32939e-05
14 *398:12 *457:20 6.14641e-05
15 *398:12 *465:6 6.9805e-05
16 *398:12 *465:16 0.000144221
17 *398:12 *575:57 0.000442652
18 *398:12 *575:65 0.000434159
19 *398:22 *400:8 0
20 *398:22 *429:26 0
21 *398:22 *459:20 0.000139647
22 *398:22 *596:100 0.000373385
23 *398:22 *636:12 2.30292e-05
24 *398:22 *636:31 0.000123517
25 *398:34 *429:26 0.000170366
26 *398:34 *442:20 0
27 *398:34 *459:8 0
28 *398:34 *459:20 0
29 *398:34 *508:34 0.000117848
30 *398:34 *514:49 2.71291e-05
31 *1344:S *1344:A0 4.00259e-06
32 *1367:A1 *398:34 9.28078e-06
33 *1367:C1 *398:34 4.51797e-05
34 *1376:B1 *1344:A0 0
35 *1376:B1 *398:12 3.8382e-06
36 *1376:B1 *398:14 9.36972e-05
37 *1385:A *398:34 3.59199e-05
38 *1430:D *398:12 0.000123797
39 *78:10 *398:34 0
40 *80:10 *398:12 5.14746e-06
41 *177:41 *398:12 4.5051e-05
42 *255:20 *398:12 0.000316532
43 *343:10 *398:34 0.00026599
44 *343:25 *398:34 0.000128583
45 *361:18 *1367:A2 5.50049e-05
*RES
1 *1342:X *398:12 48.9809 
2 *398:12 *398:14 2.48054 
3 *398:14 *398:22 36.5664 
4 *398:22 *398:34 38.8867 
5 *398:34 *1367:A2 38.6214 
6 *398:22 *1343:A_N 23 
7 *398:14 *1344:A0 23.8493 
*END

*D_NET *399 0.00235485
*CONN
*I *1346:A2 I *D sky130_fd_sc_hd__a211o_2
*I *1378:B1 I *D sky130_fd_sc_hd__a311o_2
*I *1343:X O *D sky130_fd_sc_hd__and4b_2
*CAP
1 *1346:A2 0
2 *1378:B1 0
3 *1343:X 0.000116744
4 *399:16 0.000480546
5 *399:6 0.00059729
6 *399:6 *596:100 9.0102e-05
7 *399:6 *636:31 5.67058e-05
8 *399:16 *1346:A1 0.000117499
9 *399:16 *417:35 5.58975e-06
10 *399:16 *514:49 6.31773e-05
11 *399:16 *596:100 4.40965e-05
12 *399:16 *637:26 9.87624e-05
13 *1378:C1 *399:16 5.15096e-05
14 *1391:A1 *399:16 0.000321948
15 *84:10 *399:16 9.91101e-05
16 *355:10 *399:16 0.000211768
*RES
1 *1343:X *399:6 25.5271 
2 *399:6 *399:16 42.4079 
3 *399:16 *1378:B1 23 
4 *399:6 *1346:A2 23 
*END

*D_NET *400 0.000578641
*CONN
*I *1392:A1 I *D sky130_fd_sc_hd__mux2_1
*I *1344:X O *D sky130_fd_sc_hd__mux2_1
*CAP
1 *1392:A1 0
2 *1344:X 0.0002012
3 *400:8 0.0002012
4 *400:8 *457:8 0
5 *400:8 *596:100 9.36631e-05
6 *400:8 *636:12 8.25782e-05
7 *398:22 *400:8 0
*RES
1 *1344:X *400:8 42.0186 
2 *400:8 *1392:A1 38 
*END

*D_NET *401 0.00175701
*CONN
*I *1346:B1 I *D sky130_fd_sc_hd__a211o_2
*I *1345:Y O *D sky130_fd_sc_hd__nor2_2
*CAP
1 *1346:B1 0
2 *1345:Y 0.000498201
3 *401:14 0.000498201
4 *401:14 *508:34 3.62219e-05
5 *401:14 *508:40 0.000109815
6 *1346:C1 *401:14 0.000230808
7 *1367:A1 *401:14 0.000151907
8 *1367:C1 *401:14 1.01436e-05
9 *361:18 *401:14 0.000221715
*RES
1 *1345:Y *401:14 46.845 
2 *401:14 *1346:B1 38 
*END

*D_NET *402 0.00149284
*CONN
*I *1363:A1 I *D sky130_fd_sc_hd__a21o_2
*I *1365:A2 I *D sky130_fd_sc_hd__a31o_2
*I *1346:X O *D sky130_fd_sc_hd__a211o_2
*CAP
1 *1363:A1 0.000249501
2 *1365:A2 0
3 *1346:X 0.000131562
4 *402:12 0.000262469
5 *402:8 0.000144531
6 *1363:A1 *419:6 9.5877e-05
7 *1363:A1 *419:16 0.000120771
8 *402:8 *420:24 1.14452e-05
9 *402:8 *421:8 1.69668e-05
10 *402:8 *444:10 2.26406e-05
11 *402:8 *508:40 0.000233555
12 *402:8 *635:12 0
13 *402:8 *636:31 5.0619e-05
14 *402:12 *419:16 1.68796e-05
15 *1363:B1 *1363:A1 0.000100069
16 *383:51 *1363:A1 3.59538e-05
*RES
1 *1346:X *402:8 41.3143 
2 *402:8 *402:12 15.1968 
3 *402:12 *1365:A2 23 
4 *402:12 *1363:A1 27.3811 
*END

*D_NET *403 0.00271763
*CONN
*I *1355:A I *D sky130_fd_sc_hd__and4_2
*I *1347:Y O *D sky130_fd_sc_hd__xnor2_2
*CAP
1 *1355:A 0
2 *1347:Y 0.000417437
3 *403:6 0.000417437
4 *403:6 *1569:A 5.3304e-05
5 *403:6 *446:40 8.37391e-05
6 *403:6 *446:50 0.000244341
7 *403:6 *517:52 0.00121996
8 *1484:D *403:6 0.00028142
*RES
1 *1347:Y *403:6 37.9143 
2 *403:6 *1355:A 23 
*END

*D_NET *404 0.00114325
*CONN
*I *1354:A I *D sky130_fd_sc_hd__and4_2
*I *1348:Y O *D sky130_fd_sc_hd__nand2_2
*CAP
1 *1354:A 0.000266001
2 *1348:Y 8.39137e-05
3 *404:8 0.000349915
4 *1354:A *1354:B 0.00010018
5 *1354:A *478:111 5.50106e-05
6 *404:8 *1348:A 0.000141888
7 *1153:B *1354:A 0.000146343
*RES
1 *1348:Y *404:8 39.9057 
2 *404:8 *1354:A 42.9093 
*END

*D_NET *405 0.0103798
*CONN
*I *1354:B I *D sky130_fd_sc_hd__and4_2
*I *1349:X O *D sky130_fd_sc_hd__or2_2
*CAP
1 *1354:B 0.000423122
2 *1349:X 1.08768e-05
3 *405:32 0.00143424
4 *405:20 0.00221287
5 *405:8 0.00121262
6 *1354:B *409:18 0.000113661
7 *1354:B *412:12 6.17437e-06
8 *1354:B *523:26 0.000338366
9 *405:8 *615:84 5.50049e-05
10 *405:20 *1054:A1 1.44897e-05
11 *405:20 *1168:A 4.79641e-05
12 *405:20 *1463:CLK 5.50106e-05
13 *405:20 *455:10 8.20562e-05
14 *405:20 *480:57 0.000177357
15 *405:20 *559:103 0.000118594
16 *405:20 *617:122 5.96346e-06
17 *405:32 *1463:CLK 1.03836e-05
18 *405:32 *1463:RESET_B 0.000272082
19 *405:32 *1464:SET_B 0.00039742
20 *405:32 *481:120 0.000184775
21 *405:32 *482:8 0.000100371
22 *405:32 *602:20 0.000143655
23 *1059:A *405:8 5.67058e-05
24 *1059:A *405:20 0.000131027
25 *1148:B *405:20 5.30038e-05
26 *1153:B *1354:B 5.50106e-05
27 *1168:B *405:20 0.000177855
28 *1354:A *1354:B 0.00010018
29 *151:39 *405:20 0
30 *160:12 *405:20 8.15224e-05
31 *160:14 *405:20 5.88369e-05
32 *200:14 *405:20 0.000128153
33 *200:14 *405:32 3.52543e-06
34 *240:55 *405:20 0.000349818
35 *241:10 *405:20 1.6279e-05
36 *242:16 *405:20 1.85961e-05
37 *243:44 *405:20 0.000214774
38 *244:29 *405:20 0
39 *244:56 *405:32 0.000453886
40 *244:69 *1354:B 0.000907162
41 *246:10 *1354:B 4.5051e-05
42 *250:12 *405:20 0
43 *252:8 *405:20 5.80396e-05
44 *253:10 *405:20 5.3304e-05
*RES
1 *1349:X *405:8 38.6214 
2 *405:8 *405:20 40.8307 
3 *405:20 *405:32 48.3943 
4 *405:32 *1354:B 36.6507 
*END

*D_NET *406 0.00116098
*CONN
*I *1355:B I *D sky130_fd_sc_hd__and4_2
*I *1350:X O *D sky130_fd_sc_hd__xor2_2
*CAP
1 *1355:B 0
2 *1350:X 0.00030692
3 *406:12 0.00030692
4 *406:12 *1350:B 0
5 *406:12 *1481:CLK 3.4778e-05
6 *406:12 *480:87 6.32688e-05
7 *406:12 *523:38 3.5471e-05
8 *406:12 *528:14 0.000413623
9 *406:12 *537:18 0
*RES
1 *1350:X *406:12 45.0221 
2 *406:12 *1355:B 38 
*END

*D_NET *407 0.00147628
*CONN
*I *1355:C I *D sky130_fd_sc_hd__and4_2
*I *1351:X O *D sky130_fd_sc_hd__xor2_2
*CAP
1 *1355:C 6.31279e-05
2 *1351:X 0.000207499
3 *407:10 0.000270627
4 *1355:C *1355:D 0.000139352
5 *1355:C *1569:A 0.000180218
6 *407:10 *1351:B 5.00902e-05
7 *407:10 *411:8 0.000196549
8 *407:10 *528:14 4.60263e-05
9 *407:10 *537:18 2.89917e-05
10 *407:10 *543:16 0.000293795
*RES
1 *1351:X *407:10 43.5929 
2 *407:10 *1355:C 40.0507 
*END

*D_NET *408 0.0115107
*CONN
*I *1354:C I *D sky130_fd_sc_hd__and4_2
*I *1352:Y O *D sky130_fd_sc_hd__nand2_2
*CAP
1 *1354:C 0
2 *1352:Y 0.000136012
3 *408:18 0.00290121
4 *408:10 0.00303722
5 *408:10 *545:10 0
6 *408:10 *609:41 0.000169873
7 *408:18 *1566:A 4.48644e-05
8 *408:18 *1578:addr[5] 0.00281566
9 *408:18 *409:18 0.00181053
10 *408:18 *624:75 1.25096e-05
11 *1153:B *408:18 7.94718e-05
12 *348:12 *408:18 0.000478947
13 *352:14 *408:10 2.44117e-05
*RES
1 *1352:Y *408:10 48.4339 
2 *408:10 *408:18 35.8026 
3 *408:18 *1354:C 23 
*END

*D_NET *409 0.0158269
*CONN
*I *1354:D I *D sky130_fd_sc_hd__and4_2
*I *1353:X O *D sky130_fd_sc_hd__or2_2
*CAP
1 *1354:D 0
2 *1353:X 1.90751e-05
3 *409:18 0.00346764
4 *409:10 0.00348671
5 *409:10 *1422:D 2.47015e-05
6 *409:18 *1353:B 0.00122866
7 *409:18 *1566:A 1.81712e-05
8 *409:18 *1578:addr[5] 1.38508e-05
9 *409:18 *522:27 0.00543066
10 *409:18 *624:75 0
11 *1354:B *409:18 0.000113661
12 *121:14 *409:18 2.26968e-05
13 *121:37 *409:18 9.03765e-05
14 *197:28 *409:18 0
15 *244:69 *409:18 0.000100139
16 *408:18 *409:18 0.00181053
*RES
1 *1353:X *409:10 46.3211 
2 *409:10 *409:18 36.3516 
3 *409:18 *1354:D 23 
*END

*D_NET *410 0.00311302
*CONN
*I *1355:D I *D sky130_fd_sc_hd__and4_2
*I *1354:X O *D sky130_fd_sc_hd__and4_2
*CAP
1 *1355:D 0.000746046
2 *1354:X 0.000228685
3 *410:8 0.000974731
4 *1355:D *1396:B 2.98648e-05
5 *1355:D *1481:CLK 5.10805e-05
6 *1355:D *1569:A 2.02872e-05
7 *1355:D *446:50 1.33722e-05
8 *410:8 *446:50 1.69668e-05
9 *410:8 *522:12 0.000425539
10 *410:8 *523:10 0.000192087
11 *410:8 *523:26 0
12 *1355:C *1355:D 0.000139352
13 *1481:D *1355:D 0.000236725
14 *90:8 *410:8 3.82852e-05
*RES
1 *1354:X *410:8 43.7793 
2 *410:8 *1355:D 48.6264 
*END

*D_NET *411 0.00173447
*CONN
*I *1358:A I *D sky130_fd_sc_hd__and3_2
*I *1355:X O *D sky130_fd_sc_hd__and4_2
*CAP
1 *1358:A 0.000477173
2 *1355:X 6.92576e-05
3 *411:8 0.00054643
4 *1358:A *1358:C 9.84794e-05
5 *1358:A *414:10 4.74355e-05
6 *1358:A *537:18 6.47351e-05
7 *411:8 *528:14 0.000222123
8 *411:8 *543:16 1.22906e-05
9 *407:10 *411:8 0.000196549
*RES
1 *1355:X *411:8 40.9621 
2 *411:8 *1358:A 44.9807 
*END

*D_NET *412 0.00197648
*CONN
*I *1358:B I *D sky130_fd_sc_hd__and3_2
*I *1356:X O *D sky130_fd_sc_hd__o2bb2a_2
*CAP
1 *1358:B 0
2 *1356:X 0.000420388
3 *412:12 0.000420388
4 *412:12 *1356:A1_N 0.000182013
5 *412:12 *414:10 3.70187e-05
6 *412:12 *508:123 0.000221725
7 *412:12 *526:10 0
8 *412:12 *557:10 2.04774e-05
9 *412:12 *557:16 0.000480839
10 *1159:A1 *412:12 2.23157e-05
11 *1159:A2 *412:12 5.50049e-05
12 *1354:B *412:12 6.17437e-06
13 *1356:B1 *412:12 2.4754e-05
14 *244:48 *412:12 7.3184e-05
15 *244:69 *412:12 1.21972e-05
*RES
1 *1356:X *412:12 49.1029 
2 *412:12 *1358:B 38 
*END

*D_NET *413 0.00123991
*CONN
*I *1358:C I *D sky130_fd_sc_hd__and3_2
*I *1357:X O *D sky130_fd_sc_hd__o2bb2a_2
*CAP
1 *1358:C 0.000305585
2 *1357:X 5.69692e-05
3 *413:8 0.000362554
4 *1358:C *1357:A1_N 5.595e-05
5 *1358:C *1357:B2 5.14746e-06
6 *1358:C *512:24 9.16522e-05
7 *413:8 *1103:B 0
8 *413:8 *1356:A1_N 0.000114092
9 *413:8 *554:14 2.96154e-05
10 *1357:A2_N *1358:C 9.75779e-05
11 *1358:A *1358:C 9.84794e-05
12 *196:10 *1358:C 1.76557e-05
13 *200:8 *413:8 4.6318e-06
*RES
1 *1357:X *413:8 39.5536 
2 *413:8 *1358:C 43.5514 
*END

*D_NET *414 0.00142048
*CONN
*I *1361:C I *D sky130_fd_sc_hd__nor4_2
*I *1358:X O *D sky130_fd_sc_hd__and3_2
*CAP
1 *1361:C 0
2 *1358:X 0.000503268
3 *414:10 0.000503268
4 *414:10 *508:123 0.000264597
5 *414:10 *512:24 0
6 *414:10 *515:26 9.28078e-06
7 *414:10 *557:10 5.561e-05
8 *1358:A *414:10 4.74355e-05
9 *1511:A *414:10 0
10 *412:12 *414:10 3.70187e-05
*RES
1 *1358:X *414:10 47.8186 
2 *414:10 *1361:C 38 
*END

*D_NET *415 0.00235035
*CONN
*I *1360:D I *D sky130_fd_sc_hd__or4_2
*I *1359:X O *D sky130_fd_sc_hd__or4_2
*CAP
1 *1360:D 0
2 *1359:X 0.000591732
3 *415:14 0.000591732
4 *415:14 *441:12 5.78841e-05
5 *415:14 *442:20 0.000135037
6 *415:14 *444:18 0
7 *415:14 *513:29 0.000426324
8 *415:14 *514:14 7.43025e-06
9 *1493:D *415:14 5.73018e-05
10 *99:8 *415:14 0.000135547
11 *100:14 *415:14 0.000347359
*RES
1 *1359:X *415:14 49.745 
2 *415:14 *1360:D 38 
*END

*D_NET *416 0.00283269
*CONN
*I *1361:D I *D sky130_fd_sc_hd__nor4_2
*I *1360:X O *D sky130_fd_sc_hd__or4_2
*CAP
1 *1361:D 0.000590865
2 *1360:X 0.00031254
3 *416:10 0.000903405
4 *1361:D *1399:B 2.32004e-05
5 *1361:D *1494:CLK 0.000433252
6 *1361:D *516:30 9.84851e-05
7 *1361:D *533:18 1.02949e-05
8 *416:10 *516:16 8.4047e-05
9 *416:10 *517:34 0.000142418
10 *416:10 *605:75 0.000181131
11 *99:8 *416:10 5.30518e-05
*RES
1 *1360:X *416:10 44.0693 
2 *416:10 *1361:D 47.2386 
*END

*D_NET *417 0.0108636
*CONN
*I *1378:A2 I *D sky130_fd_sc_hd__a311o_2
*I *1362:B I *D sky130_fd_sc_hd__nand2_2
*I *1361:Y O *D sky130_fd_sc_hd__nor4_2
*CAP
1 *1378:A2 0
2 *1362:B 2.89726e-05
3 *1361:Y 0.000122985
4 *417:35 0.000244188
5 *417:16 0.00341847
6 *417:10 0.00326829
7 *1362:B *418:8 6.16439e-05
8 *417:10 *510:18 0
9 *417:10 *512:10 3.83778e-05
10 *417:10 *515:26 8.41618e-05
11 *417:16 *418:8 0.000129751
12 *417:16 *432:26 7.44352e-05
13 *417:16 *508:26 0.000302954
14 *417:16 *508:28 0.000270173
15 *417:16 *508:34 0.000806536
16 *417:16 *514:41 1.56826e-05
17 *417:16 *550:16 0.000178277
18 *417:16 *550:48 0.000684929
19 *417:35 *430:20 0.000225556
20 *341:12 *417:16 0.000134538
21 *341:31 *417:16 0.00062715
22 *355:20 *417:35 4.2812e-06
23 *356:20 *1362:B 5.94125e-05
24 *356:20 *417:16 7.7201e-05
25 *356:20 *417:35 0
26 *399:16 *417:35 5.58975e-06
*RES
1 *1361:Y *417:10 48.4339 
2 *417:10 *417:16 18.819 
3 *417:16 *1362:B 38.8493 
4 *417:16 *417:35 48.3764 
5 *417:35 *1378:A2 23 
*END

*D_NET *418 0.00365248
*CONN
*I *1363:A2 I *D sky130_fd_sc_hd__a21o_2
*I *1367:B1 I *D sky130_fd_sc_hd__o221ai_2
*I *1386:A2 I *D sky130_fd_sc_hd__o21bai_2
*I *1362:Y O *D sky130_fd_sc_hd__nand2_2
*CAP
1 *1363:A2 0
2 *1367:B1 0.000149833
3 *1386:A2 0
4 *1362:Y 0.000141571
5 *418:36 0.000179521
6 *418:21 0.000456499
7 *418:12 0.000166998
8 *418:8 0.000181424
9 *1367:B1 *420:16 2.32004e-05
10 *1367:B1 *636:39 5.3304e-05
11 *1367:B1 *637:45 5.79559e-05
12 *418:8 *514:41 0.00023369
13 *418:12 *420:16 1.03836e-05
14 *418:12 *437:10 2.64616e-05
15 *418:21 *1386:A1 0
16 *418:21 *1386:B1_N 5.56356e-05
17 *418:21 *420:16 2.32101e-05
18 *418:21 *431:14 0.000142173
19 *418:36 *431:10 0.000132744
20 *418:36 *431:20 0
21 *418:36 *552:59 8.24109e-05
22 *1362:B *418:8 6.16439e-05
23 *1363:B1 *418:36 0.000102389
24 *1367:A2 *1367:B1 5.3304e-05
25 *356:20 *418:8 2.49733e-05
26 *356:24 *418:21 0.000304181
27 *356:28 *1367:B1 0.000443195
28 *356:28 *418:21 5.56356e-05
29 *361:18 *1367:B1 0.000163465
30 *361:18 *418:12 9.58714e-05
31 *361:18 *418:21 0.000101053
32 *417:16 *418:8 0.000129751
*RES
1 *1362:Y *418:8 41.3143 
2 *418:8 *418:12 16.0979 
3 *418:12 *1386:A2 23 
4 *418:12 *418:21 4.93 
5 *418:21 *1367:B1 28.3857 
6 *418:21 *418:36 33.7079 
7 *418:36 *1363:A2 23 
*END

*D_NET *419 0.00464998
*CONN
*I *1365:B1 I *D sky130_fd_sc_hd__a31o_2
*I *1384:B1 I *D sky130_fd_sc_hd__o21a_2
*I *1376:A1 I *D sky130_fd_sc_hd__a21oi_2
*I *1363:X O *D sky130_fd_sc_hd__a21o_2
*CAP
1 *1365:B1 0
2 *1384:B1 3.15879e-05
3 *1376:A1 0
4 *1363:X 3.24802e-05
5 *419:26 0.000929943
6 *419:16 0.00144555
7 *419:6 0.000516501
8 *419:16 *420:24 2.16255e-05
9 *419:16 *421:8 0.000139647
10 *419:16 *422:8 5.33831e-05
11 *419:16 *635:12 0.000344103
12 *419:26 *1430:RESET_B 7.03869e-05
13 *419:26 *1435:CLK 1.7992e-05
14 *419:26 *429:26 8.37527e-05
15 *419:26 *436:10 5.27215e-06
16 *419:26 *457:8 9.20311e-06
17 *419:26 *471:52 0
18 *1363:A1 *419:6 9.5877e-05
19 *1363:A1 *419:16 0.000120771
20 *1384:A1 *1384:B1 3.91386e-05
21 *1384:A1 *419:16 0.000137651
22 *1470:D *419:26 4.9054e-06
23 *80:10 *419:26 0.00030233
24 *383:23 *419:6 1.41129e-05
25 *383:23 *419:16 0.000161877
26 *383:51 *419:6 5.50106e-05
27 *402:12 *419:16 1.68796e-05
*RES
1 *1363:X *419:6 24.0979 
2 *419:6 *419:16 40.2536 
3 *419:16 *419:26 44.5414 
4 *419:26 *1376:A1 23 
5 *419:16 *1384:B1 23.8493 
6 *419:6 *1365:B1 23 
*END

*D_NET *420 0.00685758
*CONN
*I *1367:B2 I *D sky130_fd_sc_hd__o221ai_2
*I *1365:A3 I *D sky130_fd_sc_hd__a31o_2
*I *1364:Y O *D sky130_fd_sc_hd__nor3_2
*CAP
1 *1367:B2 3.40079e-05
2 *1365:A3 0
3 *1364:Y 0.000778632
4 *420:24 0.000224032
5 *420:16 0.00152491
6 *420:10 0.0020455
7 *420:10 *1301:B 3.56711e-05
8 *420:10 *1302:B 0.00020495
9 *420:10 *1364:A 4.04598e-06
10 *420:10 *1379:A1 5.79438e-05
11 *420:10 *430:20 0.000152662
12 *420:10 *545:40 1.75205e-05
13 *420:10 *551:61 4.02366e-05
14 *420:10 *552:28 4.24694e-06
15 *420:16 *1386:A1 2.64836e-05
16 *420:16 *437:10 5.3304e-05
17 *420:16 *519:37 0.000495856
18 *420:24 *421:8 5.561e-05
19 *420:24 *422:8 1.05441e-05
20 *420:24 *508:34 5.23831e-05
21 *420:24 *508:40 1.47563e-05
22 *1284:B1 *420:10 2.64616e-05
23 *1367:B1 *420:16 2.32004e-05
24 *1367:C1 *420:24 1.53755e-05
25 *356:24 *420:16 0.000315384
26 *356:28 *420:16 0.000487632
27 *361:18 *1367:B2 3.84098e-05
28 *361:18 *420:16 2.29399e-05
29 *361:18 *420:24 2.82066e-05
30 *402:8 *420:24 1.14452e-05
31 *418:12 *420:16 1.03836e-05
32 *418:21 *420:16 2.32101e-05
33 *419:16 *420:24 2.16255e-05
*RES
1 *1364:Y *420:10 48.73 
2 *420:10 *420:16 33.7464 
3 *420:16 *420:24 33.5836 
4 *420:24 *1365:A3 23 
5 *420:16 *1367:B2 23.8493 
*END

*D_NET *421 0.00153428
*CONN
*I *1366:A2 I *D sky130_fd_sc_hd__a21oi_2
*I *1365:X O *D sky130_fd_sc_hd__a31o_2
*CAP
1 *1366:A2 0.000379063
2 *1365:X 7.06955e-05
3 *421:8 0.000449759
4 *421:8 *635:12 1.47563e-05
5 *1367:C1 *1366:A2 9.3843e-05
6 *78:10 *1366:A2 0.00010018
7 *361:18 *1366:A2 0.000213758
8 *402:8 *421:8 1.69668e-05
9 *419:16 *421:8 0.000139647
10 *420:24 *421:8 5.561e-05
*RES
1 *1365:X *421:8 40.2579 
2 *421:8 *1366:A2 45.4779 
*END

*D_NET *422 0.000371563
*CONN
*I *1372:B1 I *D sky130_fd_sc_hd__o211a_2
*I *1367:Y O *D sky130_fd_sc_hd__o221ai_2
*CAP
1 *1372:B1 0
2 *1367:Y 0.000139336
3 *422:8 0.000139336
4 *422:8 *426:18 1.05441e-05
5 *422:8 *635:12 1.84194e-05
6 *1372:A1 *422:8 0
7 *356:45 *422:8 0
8 *419:16 *422:8 5.33831e-05
9 *420:24 *422:8 1.05441e-05
*RES
1 *1367:Y *422:8 40.61 
2 *422:8 *1372:B1 38 
*END

*D_NET *423 0.00682493
*CONN
*I *1369:B I *D sky130_fd_sc_hd__nand2_2
*I *1387:A I *D sky130_fd_sc_hd__nand2_2
*I *1374:A3 I *D sky130_fd_sc_hd__a311o_2
*I *1368:X O *D sky130_fd_sc_hd__or2_2
*CAP
1 *1369:B 0
2 *1387:A 0
3 *1374:A3 0.000365271
4 *1368:X 0
5 *423:46 0.00168258
6 *423:10 0.00071047
7 *423:4 0.00202778
8 *1374:A3 *1374:C1 5.3304e-05
9 *1374:A3 *1563:A 0
10 *1374:A3 *1564:A 0.000191119
11 *1374:A3 *426:6 0.000230258
12 *1374:A3 *547:23 8.12378e-05
13 *1374:A3 *547:42 5.58534e-05
14 *1374:A3 *550:8 0
15 *1374:A3 *552:16 9.45591e-05
16 *423:10 *1368:A 2.31797e-05
17 *423:10 *1368:B 1.76557e-05
18 *423:10 *1563:A 0
19 *423:10 *1564:A 0
20 *423:10 *508:18 2.81406e-06
21 *423:10 *519:10 0
22 *423:10 *544:20 5.70419e-05
23 *423:46 *1486:CLK 0.000335401
24 *423:46 *424:8 6.23397e-05
25 *423:46 *508:18 1.14762e-05
26 *423:46 *510:18 5.19016e-05
27 *423:46 *515:26 3.14377e-05
28 *423:46 *606:58 0.000234007
29 *423:46 *606:86 7.56198e-05
30 *423:46 *606:95 5.11621e-05
31 *423:46 *606:121 0.000329319
32 *1374:A2 *1374:A3 4.91451e-05
*RES
1 *1368:X *423:4 23 
2 *423:4 *423:10 20.2614 
3 *423:10 *1374:A3 47.1454 
4 *423:10 *1387:A 38 
5 *423:4 *423:46 41.4107 
6 *423:46 *1369:B 38 
*END

*D_NET *424 0.00630491
*CONN
*I *1371:S I *D sky130_fd_sc_hd__mux2_1
*I *1369:Y O *D sky130_fd_sc_hd__nand2_2
*CAP
1 *1371:S 0
2 *1369:Y 0.000238481
3 *424:36 0.000197576
4 *424:28 0.00119708
5 *424:8 0.00123798
6 *424:8 *1359:D 1.76527e-05
7 *424:8 *510:18 0
8 *424:8 *513:12 0.000138145
9 *424:8 *514:33 2.29192e-05
10 *424:8 *515:26 8.69451e-05
11 *424:28 *1487:CLK 8.25497e-05
12 *424:28 *510:10 5.3304e-05
13 *424:28 *511:22 0.000118422
14 *424:28 *531:8 7.13587e-05
15 *424:28 *534:8 0.00058503
16 *424:36 *1371:A1 0.00018282
17 *424:36 *1418:CLK 0
18 *424:36 *1563:A 0.000214175
19 *424:36 *1564:A 0.00010018
20 *424:36 *535:10 5.37348e-06
21 *1556:A *424:28 0.00101665
22 *77:10 *424:28 0.000153335
23 *96:10 *424:28 0.000337319
24 *100:14 *424:8 0.000185268
25 *423:46 *424:8 6.23397e-05
*RES
1 *1369:Y *424:8 43.4271 
2 *424:8 *424:28 41.4107 
3 *424:28 *424:36 35.0129 
4 *424:36 *1371:S 23 
*END

*D_NET *425 0.00512848
*CONN
*I *1371:A1 I *D sky130_fd_sc_hd__mux2_1
*I *1370:Y O *D sky130_fd_sc_hd__nand2_2
*CAP
1 *1371:A1 0.000229535
2 *1370:Y 0.00161339
3 *425:12 0.00184293
4 *1371:A1 *1488:CLK 6.17437e-06
5 *1371:A1 *1564:A 4.66047e-05
6 *1371:A1 *447:50 5.12254e-05
7 *1371:A1 *535:10 2.07242e-05
8 *1371:A1 *552:16 0.000143655
9 *425:12 *1359:B 5.3304e-05
10 *425:12 *1359:D 4.50767e-06
11 *425:12 *1488:CLK 0.000248624
12 *425:12 *508:8 9.5877e-05
13 *425:12 *511:37 7.15126e-05
14 *425:12 *514:14 0.000308039
15 *425:12 *547:42 0.000104089
16 *425:12 *554:8 5.04167e-05
17 *97:12 *425:12 2.33003e-05
18 *100:14 *425:12 3.17516e-05
19 *424:36 *1371:A1 0.00018282
*RES
1 *1370:Y *425:12 48.1057 
2 *425:12 *1371:A1 28.4064 
*END

*D_NET *426 0.006106
*CONN
*I *1372:A2 I *D sky130_fd_sc_hd__o211a_2
*I *1371:X O *D sky130_fd_sc_hd__mux2_1
*CAP
1 *1372:A2 0
2 *1371:X 0.000579966
3 *426:18 0.00110671
4 *426:6 0.00168668
5 *426:6 *1389:A1 1.21972e-05
6 *426:6 *1390:A3 0.00030974
7 *426:6 *428:10 0.000481035
8 *426:6 *433:10 5.01656e-05
9 *426:6 *487:14 0.000308946
10 *426:6 *552:16 0.00030894
11 *426:6 *552:24 0.000718557
12 *426:18 *429:26 0.00018781
13 *426:18 *456:158 1.70989e-05
14 *426:18 *514:41 4.35681e-06
15 *426:18 *635:12 0
16 uo_out[3] *426:18 4.18138e-05
17 *1372:A1 *426:18 2.75733e-06
18 *1374:A2 *426:6 1.00117e-05
19 *1374:A3 *426:6 0.000230258
20 *1375:B1 *426:18 2.33476e-05
21 *38:12 *426:18 9.51819e-07
22 *79:8 *426:18 0
23 *342:41 *426:6 1.41077e-05
24 *422:8 *426:18 1.05441e-05
*RES
1 *1371:X *426:6 41.2493 
2 *426:6 *426:18 36.4044 
3 *426:18 *1372:A2 38 
*END

*D_NET *427 0.0026756
*CONN
*I *1387:B I *D sky130_fd_sc_hd__nand2_2
*I *1375:A1 I *D sky130_fd_sc_hd__a21o_2
*I *1373:Y O *D sky130_fd_sc_hd__nand2b_2
*CAP
1 *1387:B 7.69279e-05
2 *1375:A1 0
3 *1373:Y 0.00059158
4 *427:22 0.000532199
5 *427:6 0.000136309
6 *1387:B *438:10 7.73389e-05
7 *427:6 *511:22 6.84456e-05
8 *427:6 *531:8 0.000230604
9 *427:6 *546:50 0.000187129
10 *427:22 *1564:A 4.15283e-06
11 *427:22 *531:8 2.33991e-05
12 *427:22 *550:8 0.000147206
13 *427:22 *550:12 0.000173506
14 *427:22 *551:61 5.41385e-05
15 *427:22 *555:51 0.000353115
16 *353:16 *427:6 1.95443e-05
*RES
1 *1373:Y *427:6 27.4329 
2 *427:6 *1375:A1 23 
3 *1373:Y *427:22 46.6793 
4 *427:22 *1387:B 39.5743 
*END

*D_NET *428 0.00154962
*CONN
*I *1375:A2 I *D sky130_fd_sc_hd__a21o_2
*I *1374:X O *D sky130_fd_sc_hd__a311o_2
*CAP
1 *1375:A2 0
2 *1374:X 0.000451034
3 *428:10 0.000451034
4 *428:10 *458:16 0
5 *428:10 *546:50 0.000166513
6 *426:6 *428:10 0.000481035
*RES
1 *1374:X *428:10 45.6436 
2 *428:10 *1375:A2 38 
*END

*D_NET *429 0.0080759
*CONN
*I *1376:A2 I *D sky130_fd_sc_hd__a21oi_2
*I *1375:X O *D sky130_fd_sc_hd__a21o_2
*CAP
1 *1376:A2 0
2 *1375:X 0.000504711
3 *429:26 0.00219847
4 *429:10 0.00270318
5 *429:10 *432:26 2.26497e-05
6 *429:10 *458:16 0
7 *429:10 *487:14 6.39948e-05
8 *429:10 *514:41 0.000428836
9 *429:26 *1430:RESET_B 2.93845e-05
10 *429:26 *432:26 0.000505066
11 *429:26 *457:8 0
12 *429:26 *459:8 0
13 *429:26 *459:20 0
14 *429:26 *471:52 0
15 *429:26 *508:34 3.69807e-05
16 *429:26 *603:8 0
17 *1375:B1 *429:10 0.000443679
18 *38:12 *429:26 0
19 *42:12 *429:26 9.58483e-06
20 *43:12 *429:26 0.000155062
21 *44:12 *429:26 0
22 *45:12 *429:26 4.46864e-05
23 *78:10 *429:26 0
24 *80:10 *429:26 0.000384045
25 *398:12 *429:26 0.000103647
26 *398:22 *429:26 0
27 *398:34 *429:26 0.000170366
28 *419:26 *429:26 8.37527e-05
29 *426:18 *429:26 0.00018781
*RES
1 *1375:X *429:10 48.8646 
2 *429:10 *429:26 44.8261 
3 *429:26 *1376:A2 23 
*END

*D_NET *430 0.00336512
*CONN
*I *1378:A3 I *D sky130_fd_sc_hd__a311o_2
*I *1377:X O *D sky130_fd_sc_hd__or3_2
*CAP
1 *1378:A3 0
2 *1377:X 0.000206653
3 *430:20 0.000650478
4 *430:10 0.000857131
5 *430:10 *544:20 0.000182832
6 *430:10 *610:70 3.30257e-05
7 *430:20 *1301:A 0.000180841
8 *430:20 *1301:C_N 9.16336e-05
9 *430:20 *551:61 9.5877e-05
10 *1305:A1 *430:20 9.91895e-05
11 *1305:B1 *430:20 0.000157172
12 *1362:A *430:20 0.000135627
13 *1378:A1 *430:20 5.47983e-06
14 *1378:C1 *430:20 5.3304e-05
15 *341:12 *430:10 2.31209e-05
16 *356:20 *430:20 1.89178e-05
17 *359:10 *430:10 0.000138727
18 *383:51 *430:20 5.68958e-05
19 *417:35 *430:20 0.000225556
20 *420:10 *430:20 0.000152662
*RES
1 *1377:X *430:10 41.9564 
2 *430:10 *430:20 30.1007 
3 *430:20 *1378:A3 23 
*END

*D_NET *431 0.00142396
*CONN
*I *1386:B1_N I *D sky130_fd_sc_hd__o21bai_2
*I *1381:B1 I *D sky130_fd_sc_hd__o311a_2
*I *1378:X O *D sky130_fd_sc_hd__a311o_2
*CAP
1 *1386:B1_N 1.08325e-05
2 *1381:B1 0
3 *1378:X 0.000147845
4 *431:20 0.00021541
5 *431:14 0.000257826
6 *431:10 0.000179429
7 *431:20 *432:26 9.85586e-06
8 *431:20 *433:10 9.2018e-06
9 *1363:B1 *431:10 3.22051e-05
10 *342:54 *431:20 4.77164e-06
11 *356:20 *431:10 0
12 *356:20 *431:20 0
13 *356:75 *431:20 3.70961e-05
14 *356:82 *431:20 0
15 *361:18 *1386:B1_N 4.44329e-05
16 *361:18 *431:14 0.000144501
17 *418:21 *1386:B1_N 5.56356e-05
18 *418:21 *431:14 0.000142173
19 *418:36 *431:10 0.000132744
20 *418:36 *431:20 0
*RES
1 *1378:X *431:10 40.5271 
2 *431:10 *431:14 16.5743 
3 *431:14 *431:20 33.3143 
4 *431:20 *1381:B1 23 
5 *431:14 *1386:B1_N 23.6214 
*END

*D_NET *432 0.00320936
*CONN
*I *1383:A1 I *D sky130_fd_sc_hd__mux2_1
*I *1381:A2 I *D sky130_fd_sc_hd__o311a_2
*I *1379:X O *D sky130_fd_sc_hd__o21ba_2
*CAP
1 *1383:A1 0
2 *1381:A2 0
3 *1379:X 0.000231521
4 *432:26 0.000501467
5 *432:12 0.000542134
6 *432:8 0.000272188
7 *432:8 *1389:B1 6.25829e-05
8 *432:8 *438:14 6.25829e-05
9 *432:8 *458:16 0.000216292
10 *432:8 *544:26 3.11006e-05
11 *432:12 *1383:S 3.7122e-06
12 *432:12 *1388:B 2.18409e-05
13 *432:12 *438:10 5.61255e-06
14 *432:12 *549:29 9.58714e-05
15 *432:26 *1388:B 0.000140281
16 *432:26 *487:14 3.31723e-05
17 *432:26 *508:34 8.00882e-05
18 *432:26 *514:41 1.72531e-05
19 *432:26 *549:29 0.000182832
20 *38:12 *432:26 0
21 *356:75 *432:26 2.42715e-05
22 *358:58 *432:8 6.48049e-05
23 *361:8 *432:8 7.7501e-06
24 *417:16 *432:26 7.44352e-05
25 *429:10 *432:26 2.26497e-05
26 *429:26 *432:26 0.000505066
27 *431:20 *432:26 9.85586e-06
*RES
1 *1379:X *432:8 42.3707 
2 *432:8 *432:12 16.0979 
3 *432:12 *432:26 35.4835 
4 *432:26 *1381:A2 38 
5 *432:12 *1383:A1 23 
*END

*D_NET *433 0.00276945
*CONN
*I *1381:A3 I *D sky130_fd_sc_hd__o311a_2
*I *1380:Y O *D sky130_fd_sc_hd__a21oi_2
*CAP
1 *1381:A3 4.14577e-05
2 *1380:Y 0.000774986
3 *433:10 0.000816444
4 *1381:A3 *435:20 0.000185364
5 *1381:A3 *544:34 0.000187065
6 *433:10 *1389:A1 0.000137651
7 *433:10 *1390:A3 6.32895e-05
8 *342:41 *433:10 0.00026025
9 *342:54 *433:10 5.95172e-05
10 *356:82 *433:10 0.000184057
11 *426:6 *433:10 5.01656e-05
12 *431:20 *433:10 9.2018e-06
*RES
1 *1380:Y *433:10 49.3307 
2 *433:10 *1381:A3 40.0507 
*END

*D_NET *434 0.000394937
*CONN
*I *1383:S I *D sky130_fd_sc_hd__mux2_1
*I *1382:X O *D sky130_fd_sc_hd__mux2_1
*CAP
1 *1383:S 7.51308e-05
2 *1382:X 7.51308e-05
3 *1383:S *1388:B 0
4 *1383:S *438:10 0.000137651
5 *1383:S *549:29 7.44161e-06
6 *358:58 *1383:S 9.58714e-05
7 *432:12 *1383:S 3.7122e-06
*RES
1 *1382:X *1383:S 48.0714 
*END

*D_NET *435 0.00278998
*CONN
*I *1384:A2 I *D sky130_fd_sc_hd__o21a_2
*I *1383:X O *D sky130_fd_sc_hd__mux2_1
*CAP
1 *1384:A2 0
2 *1383:X 0.0005258
3 *435:20 0.0005258
4 *435:20 *1388:B 9.88081e-05
5 *435:20 *544:34 0.000354283
6 *435:20 *549:29 6.70895e-05
7 *435:20 *552:59 0.000188927
8 *1372:A1 *435:20 8.24128e-05
9 *1381:A3 *435:20 0.000185364
10 *1384:A1 *435:20 0.000409126
11 *342:14 *435:20 2.32101e-05
12 *342:31 *435:20 0.000233619
13 *342:54 *435:20 7.08529e-05
14 *353:10 *435:20 2.46906e-05
*RES
1 *1383:X *435:20 40.69 
2 *435:20 *1384:A2 23 
*END

*D_NET *436 0.00107696
*CONN
*I *1385:B I *D sky130_fd_sc_hd__nor2_2
*I *1384:X O *D sky130_fd_sc_hd__o21a_2
*CAP
1 *1385:B 0
2 *1384:X 0.000240327
3 *436:10 0.000240327
4 *436:10 *635:12 0
5 *1385:A *436:10 0.000368924
6 *82:8 *436:10 0.000222113
7 *419:26 *436:10 5.27215e-06
*RES
1 *1384:X *436:10 43.6964 
2 *436:10 *1385:B 38 
*END

*D_NET *437 0.00110061
*CONN
*I *1390:B1 I *D sky130_fd_sc_hd__o311a_2
*I *1386:Y O *D sky130_fd_sc_hd__o21bai_2
*CAP
1 *1390:B1 0
2 *1386:Y 0.00025077
3 *437:10 0.00025077
4 *437:10 *439:8 5.97612e-05
5 *437:10 *514:41 0.000353431
6 *437:10 *549:29 5.88461e-05
7 *356:20 *437:10 2.76611e-06
8 *356:82 *437:10 4.45037e-05
9 *418:12 *437:10 2.64616e-05
10 *420:16 *437:10 5.3304e-05
*RES
1 *1386:Y *437:10 43.6964 
2 *437:10 *1390:B1 38 
*END

*D_NET *438 0.00442576
*CONN
*I *1389:B1 I *D sky130_fd_sc_hd__o21a_2
*I *1388:B I *D sky130_fd_sc_hd__nor2_2
*I *1387:Y O *D sky130_fd_sc_hd__nand2_2
*CAP
1 *1389:B1 0.000115362
2 *1388:B 0.00017203
3 *1387:Y 0.000559535
4 *438:14 0.000317375
5 *438:10 0.000589518
6 *1388:B *544:34 7.21567e-05
7 *1388:B *549:29 6.53382e-05
8 *1389:B1 *1383:A0 1.37349e-05
9 *1389:B1 *487:14 5.30406e-05
10 *438:10 *1501:A 0.000125913
11 *438:10 *546:8 0.000909782
12 *438:10 *549:6 0.000481943
13 *438:10 *549:19 1.03836e-05
14 *438:14 *1383:A0 3.0647e-05
15 *438:14 *544:26 4.6318e-06
16 *1383:S *1388:B 0
17 *1383:S *438:10 0.000137651
18 *1387:B *438:10 7.73389e-05
19 *358:42 *438:10 2.65879e-05
20 *358:58 *1389:B1 7.34858e-05
21 *358:58 *438:10 0.000197601
22 *432:8 *1389:B1 6.25829e-05
23 *432:8 *438:14 6.25829e-05
24 *432:12 *1388:B 2.18409e-05
25 *432:12 *438:10 5.61255e-06
26 *432:26 *1388:B 0.000140281
27 *435:20 *1388:B 9.88081e-05
*RES
1 *1387:Y *438:10 38.5564 
2 *438:10 *438:14 15.8493 
3 *438:14 *1388:B 42.5986 
4 *438:14 *1389:B1 40.9621 
*END

*D_NET *439 0.000357898
*CONN
*I *1390:A2 I *D sky130_fd_sc_hd__o311a_2
*I *1388:Y O *D sky130_fd_sc_hd__nor2_2
*CAP
1 *1390:A2 0
2 *1388:Y 6.87294e-05
3 *439:8 6.87294e-05
4 *439:8 *549:29 1.14452e-05
5 *1375:B1 *439:8 1.14452e-05
6 *356:82 *439:8 0.000137788
7 *437:10 *439:8 5.97612e-05
*RES
1 *1388:Y *439:8 39.9057 
2 *439:8 *1390:A2 38 
*END

*D_NET *440 0.00065217
*CONN
*I *1390:A3 I *D sky130_fd_sc_hd__o311a_2
*I *1389:X O *D sky130_fd_sc_hd__o21a_2
*CAP
1 *1390:A3 0.000104596
2 *1389:X 0.000104596
3 *342:41 *1390:A3 6.99492e-05
4 *426:6 *1390:A3 0.00030974
5 *433:10 *1390:A3 6.32895e-05
*RES
1 *1389:X *1390:A3 49.48 
*END

*D_NET *441 0.00202632
*CONN
*I *1409:A1 I *D sky130_fd_sc_hd__o21a_2
*I *1407:X O *D sky130_fd_sc_hd__and2_2
*CAP
1 *1409:A1 0
2 *1407:X 0.000827927
3 *441:12 0.000827927
4 *441:12 *1409:B1 2.57604e-05
5 *441:12 *1562:A 5.71978e-05
6 *441:12 *514:70 0.000177197
7 *1493:D *441:12 5.2426e-05
8 *415:14 *441:12 5.78841e-05
*RES
1 *1407:X *441:12 35.1179 
2 *441:12 *1409:A1 23 
*END

*D_NET *442 0.0185031
*CONN
*I *1409:A2 I *D sky130_fd_sc_hd__o21a_2
*I *1408:Y O *D sky130_fd_sc_hd__nor2_2
*CAP
1 *1409:A2 0
2 *1408:Y 1.2991e-05
3 *442:20 0.00436154
4 *442:10 0.00437453
5 *442:10 *508:48 0
6 *442:20 *1409:B1 9.41704e-05
7 *442:20 *444:18 0.00599767
8 *442:20 *447:173 4.80211e-05
9 *442:20 *447:188 7.35832e-05
10 *442:20 *486:20 8.08487e-05
11 *442:20 *513:29 8.4047e-05
12 *442:20 *514:14 0.000147744
13 *442:20 *516:58 0.00180091
14 *442:20 *528:14 0.000326854
15 *442:20 *587:16 0
16 *442:20 *606:138 0.0001022
17 *442:20 *611:35 9.70421e-05
18 *46:30 *442:20 0.000583516
19 *92:8 *442:20 0.000171867
20 *343:10 *442:10 1.05658e-05
21 *398:34 *442:20 0
22 *415:14 *442:20 0.000135037
*RES
1 *1408:Y *442:10 46.3211 
2 *442:10 *442:20 48.4989 
3 *442:20 *1409:A2 23 
*END

*D_NET *443 0.00111932
*CONN
*I *1413:A1 I *D sky130_fd_sc_hd__o21a_2
*I *1411:X O *D sky130_fd_sc_hd__and2_2
*CAP
1 *1413:A1 0
2 *1411:X 0.000376001
3 *443:8 0.000376001
4 *443:8 *1411:B 0.000228909
5 *443:8 *508:149 2.02872e-05
6 *443:8 *515:12 7.4416e-05
7 *443:8 *515:26 4.37033e-05
*RES
1 *1411:X *443:8 30.3121 
2 *443:8 *1413:A1 23 
*END

*D_NET *444 0.018418
*CONN
*I *1413:A2 I *D sky130_fd_sc_hd__o21a_2
*I *1412:Y O *D sky130_fd_sc_hd__nor2_2
*CAP
1 *1413:A2 0
2 *1412:Y 0.000590602
3 *444:18 0.00394901
4 *444:10 0.00453962
5 *444:10 *456:70 9.1946e-06
6 *444:10 *508:40 0.0001201
7 *444:10 *516:72 0.000223704
8 *444:10 *556:8 1.05984e-05
9 *444:10 *557:71 0.000310619
10 *444:10 *635:12 0
11 *444:10 *635:29 0
12 *444:10 *636:31 2.24608e-05
13 *444:18 *1360:C 0.00026599
14 *444:18 *1410:B 0
15 *444:18 *1417:A 0.000132918
16 *444:18 *508:34 0
17 *444:18 *514:70 0.000136486
18 *444:18 *517:34 5.407e-05
19 *444:18 *519:37 0.000182061
20 *444:18 *543:16 0
21 *444:18 *553:16 0.000868749
22 *444:18 *605:79 0
23 *99:8 *444:18 0
24 *102:8 *444:18 0
25 *103:8 *444:18 0.000101774
26 *341:31 *444:18 0.000879696
27 *402:8 *444:10 2.26406e-05
28 *415:14 *444:18 0
29 *442:20 *444:18 0.00599767
*RES
1 *1412:Y *444:10 48.5954 
2 *444:10 *444:18 42.0288 
3 *444:18 *1413:A2 38 
*END

*D_NET *445 0.000634921
*CONN
*I *1416:A1 I *D sky130_fd_sc_hd__o21a_2
*I *1414:X O *D sky130_fd_sc_hd__and2_2
*CAP
1 *1416:A1 0.000203707
2 *1414:X 0.000203707
3 *1416:A1 *517:22 0.000227507
*RES
1 *1414:X *1416:A1 49.9771 
*END

*D_NET *446 0.0172882
*CONN
*I *1416:A2 I *D sky130_fd_sc_hd__o21a_2
*I *1415:Y O *D sky130_fd_sc_hd__nor2_2
*CAP
1 *1416:A2 0.00010636
2 *1415:Y 0.00027001
3 *446:50 0.0016385
4 *446:40 0.00267389
5 *446:22 0.00252357
6 *446:12 0.00165182
7 *1416:A2 *1416:B1 6.17437e-06
8 *1416:A2 *517:22 3.2327e-05
9 *1416:A2 *605:75 4.00259e-06
10 *446:12 *1063:A 7.51453e-06
11 *446:12 *592:14 3.79779e-05
12 *446:12 *615:84 6.56122e-05
13 *446:22 *1092:B 6.95776e-05
14 *446:22 *1101:B 0
15 *446:22 *1578:addr[1] 0.00120206
16 *446:22 *478:28 0.00111631
17 *446:22 *481:52 2.11066e-05
18 *446:22 *484:14 0
19 *446:22 *592:14 1.66821e-05
20 *446:22 *602:73 4.41864e-05
21 *446:22 *606:10 2.76611e-06
22 *446:22 *610:51 0.000398016
23 *446:40 *1347:A 5.50106e-05
24 *446:40 *517:52 0.000851832
25 *446:40 *576:14 0.000133628
26 *446:40 *576:26 0.000308711
27 *446:50 *1396:B 2.64616e-05
28 *446:50 *1481:CLK 0.000437555
29 *446:50 *1569:A 4.21378e-05
30 *446:50 *522:12 0
31 *446:50 *533:18 0.000206386
32 *446:50 *557:10 0.000223704
33 *446:50 *605:79 0.000788233
34 *446:50 *605:83 6.25829e-05
35 *1146:B *446:40 0.000123934
36 *1355:D *446:50 1.33722e-05
37 *1481:D *446:50 0.000130169
38 *1484:D *446:40 0.000103152
39 *90:8 *446:50 8.72173e-05
40 *151:58 *446:22 0.000508375
41 *151:72 *446:22 0.000126631
42 *164:67 *446:12 4.95487e-06
43 *166:8 *446:12 5.64598e-05
44 *166:8 *446:22 8.29585e-06
45 *180:54 *446:22 0.000530841
46 *233:34 *446:22 1.65248e-05
47 *368:12 *446:22 0.000208485
48 *403:6 *446:40 8.37391e-05
49 *403:6 *446:50 0.000244341
50 *410:8 *446:50 1.69668e-05
*RES
1 *1415:Y *446:12 43.2304 
2 *446:12 *446:22 40.9396 
3 *446:22 *446:40 39.4636 
4 *446:40 *446:50 46.2579 
5 *446:50 *1416:A2 39.595 
*END

*D_NET *447 0.0248175
*CONN
*I *1478:CLK I *D sky130_fd_sc_hd__dfxtp_2
*I *1479:CLK I *D sky130_fd_sc_hd__dfxtp_2
*I *1480:CLK I *D sky130_fd_sc_hd__dfxtp_2
*I *1482:CLK I *D sky130_fd_sc_hd__dfxtp_2
*I *1495:CLK I *D sky130_fd_sc_hd__dfxtp_2
*I *1490:CLK I *D sky130_fd_sc_hd__dfxtp_2
*I *1494:CLK I *D sky130_fd_sc_hd__dfxtp_2
*I *1481:CLK I *D sky130_fd_sc_hd__dfxtp_2
*I *1483:CLK I *D sky130_fd_sc_hd__dfxtp_2
*I *1484:CLK I *D sky130_fd_sc_hd__dfxtp_2
*I *1489:CLK I *D sky130_fd_sc_hd__dfxtp_2
*I *1487:CLK I *D sky130_fd_sc_hd__dfxtp_2
*I *1493:CLK I *D sky130_fd_sc_hd__dfxtp_2
*I *1492:CLK I *D sky130_fd_sc_hd__dfxtp_2
*I *1491:CLK I *D sky130_fd_sc_hd__dfxtp_2
*I *1485:CLK I *D sky130_fd_sc_hd__dfxtp_2
*I *1488:CLK I *D sky130_fd_sc_hd__dfxtp_2
*I *1476:CLK I *D sky130_fd_sc_hd__dfxtp_2
*I *1477:CLK I *D sky130_fd_sc_hd__dfxtp_2
*I *1486:CLK I *D sky130_fd_sc_hd__dfxtp_2
*I *1418:GCLK O *D sky130_fd_sc_hd__dlclkp_2
*CAP
1 *1478:CLK 9.44085e-05
2 *1479:CLK 0
3 *1480:CLK 0.000244824
4 *1482:CLK 0
5 *1495:CLK 0.00036346
6 *1490:CLK 0
7 *1494:CLK 0.000149986
8 *1481:CLK 0.000241698
9 *1483:CLK 0
10 *1484:CLK 0
11 *1489:CLK 0.000121912
12 *1487:CLK 0.000387951
13 *1493:CLK 0
14 *1492:CLK 2.37462e-05
15 *1491:CLK 0
16 *1485:CLK 0
17 *1488:CLK 0.000235282
18 *1476:CLK 0
19 *1477:CLK 0.000171857
20 *1486:CLK 9.4045e-05
21 *1418:GCLK 0.000207387
22 *447:188 0.000461319
23 *447:173 0.000427921
24 *447:160 0.000421774
25 *447:158 0.000510278
26 *447:151 0.000425688
27 *447:144 0.000172986
28 *447:138 0.000375672
29 *447:109 0.000294872
30 *447:94 0.000824045
31 *447:85 0.000611069
32 *447:81 0.000655994
33 *447:79 0.000549528
34 *447:75 0.000451237
35 *447:68 0.00038398
36 *447:64 0.000297761
37 *447:50 0.000415198
38 *447:29 0.000518749
39 *447:18 0.000493255
40 *447:14 0.000494484
41 *447:10 0.000506696
42 *1480:CLK *517:34 0.000229658
43 *1481:CLK *1569:A 0.000306338
44 *1481:CLK *528:14 0
45 *1481:CLK *537:18 0.000212217
46 *1486:CLK *1393:B 9.84794e-05
47 *1486:CLK *508:18 6.16283e-05
48 *1486:CLK *606:58 9.84851e-05
49 *1487:CLK *1285:B 5.71786e-05
50 *1487:CLK *511:10 0
51 *1488:CLK *508:8 4.96717e-05
52 *1489:CLK *606:95 5.56279e-05
53 *1489:CLK *606:121 0.000131437
54 *1494:CLK *1399:B 0.000221997
55 *1494:CLK *533:18 0.000119313
56 *1495:CLK *516:16 9.13962e-05
57 *1495:CLK *518:8 2.93747e-05
58 *1495:CLK *605:10 0.000103605
59 *447:10 *1394:B 0.000143655
60 *447:10 *1418:CLK 4.06849e-05
61 *447:10 *606:10 0
62 *447:14 *521:12 0.000247714
63 *447:14 *606:36 2.64616e-05
64 *447:18 *1418:CLK 0.000111644
65 *447:18 *516:40 0.000240198
66 *447:18 *519:10 8.26075e-05
67 *447:18 *535:10 1.6279e-05
68 *447:29 *1563:A 5.16316e-05
69 *447:29 *519:10 5.66921e-05
70 *447:29 *535:10 0.000106381
71 *447:50 *1418:CLK 2.07357e-05
72 *447:50 *1563:A 5.32586e-05
73 *447:50 *535:10 0.000116442
74 *447:64 *521:12 5.98028e-05
75 *447:64 *606:36 9.91895e-05
76 *447:68 *521:12 0.000262503
77 *447:68 *537:22 0.000236214
78 *447:68 *606:36 3.53115e-05
79 *447:75 *537:22 8.59258e-05
80 *447:79 *530:10 0.000263887
81 *447:79 *606:103 8.66582e-05
82 *447:81 *606:103 1.6279e-05
83 *447:85 *576:8 6.17437e-06
84 *447:94 *513:6 0.00010018
85 *447:94 *513:29 0.000206946
86 *447:94 *550:48 5.3304e-05
87 *447:109 *513:29 0.000312348
88 *447:109 *514:14 0.000177604
89 *447:109 *543:16 0.000160191
90 *447:138 *537:22 4.77393e-05
91 *447:151 *527:8 9.6332e-05
92 *447:151 *537:22 0.000155182
93 *447:158 *517:34 9.17998e-05
94 *447:158 *527:8 4.5051e-05
95 *447:158 *537:22 0.000219935
96 *447:173 *508:123 0
97 *447:173 *516:30 1.74874e-06
98 *447:173 *537:18 7.20381e-05
99 *447:173 *541:12 4.31263e-05
100 *447:188 *516:30 4.38834e-05
101 *447:188 *606:138 1.01436e-05
102 *1355:D *1481:CLK 5.10805e-05
103 *1361:D *1494:CLK 0.000433252
104 *1371:A1 *1488:CLK 6.17437e-06
105 *1371:A1 *447:50 5.12254e-05
106 *1476:D *1488:CLK 0.000491395
107 *1477:D *1477:CLK 0.000100782
108 *1479:D *447:68 0.000189681
109 *1482:D *1480:CLK 0.000575747
110 *1483:D *1480:CLK 4.08664e-05
111 *1483:D *447:158 0.000652269
112 *1485:D *447:75 0.000143349
113 *1485:D *447:138 0.000130637
114 *1485:D *447:151 0.000172252
115 *1490:D *1495:CLK 0.000312286
116 *1491:D *447:94 0.000645611
117 *1555:A *1478:CLK 8.57167e-05
118 *1555:A *447:10 1.40087e-05
119 *1556:A *1487:CLK 7.87243e-05
120 *87:18 *1478:CLK 0.000176295
121 *87:18 *447:10 0.000181071
122 *92:8 *1481:CLK 3.18198e-05
123 *92:8 *447:173 0.000157463
124 *93:10 *447:144 0
125 *94:8 *447:79 0
126 *95:6 *1489:CLK 5.56279e-05
127 *97:12 *1487:CLK 8.54089e-05
128 *97:12 *447:79 6.71206e-05
129 *97:12 *447:81 9.3375e-05
130 *97:12 *447:144 0
131 *98:16 *1495:CLK 0.000110039
132 *99:8 *447:109 4.55681e-05
133 *101:16 *447:109 0.000439206
134 *180:70 *447:10 1.94418e-05
135 *353:34 *1488:CLK 0.000120171
136 *406:12 *1481:CLK 3.4778e-05
137 *423:46 *1486:CLK 0.000335401
138 *424:28 *1487:CLK 8.25497e-05
139 *425:12 *1488:CLK 0.000248624
140 *442:20 *447:173 4.80211e-05
141 *442:20 *447:188 7.35832e-05
142 *446:50 *1481:CLK 0.000437555
*RES
1 *1418:GCLK *447:10 42.8886 
2 *447:10 *447:14 19.9093 
3 *447:14 *447:18 20.7793 
4 *447:18 *1486:CLK 41.9564 
5 *447:18 *447:29 3.31429 
6 *447:29 *1477:CLK 41.0243 
7 *447:29 *447:50 19.1221 
8 *447:50 *1476:CLK 23 
9 *447:50 *1488:CLK 31.2443 
10 *447:14 *447:64 2.05071 
11 *447:64 *447:68 8.74143 
12 *447:68 *1485:CLK 23 
13 *447:68 *447:75 3.00357 
14 *447:75 *447:79 20.7793 
15 *447:79 *447:81 2.96214 
16 *447:81 *447:85 16.5743 
17 *447:85 *1491:CLK 23 
18 *447:85 *447:94 11.4757 
19 *447:94 *1492:CLK 23.4971 
20 *447:94 *447:109 38.5964 
21 *447:109 *1493:CLK 23 
22 *447:81 *1487:CLK 45.3536 
23 *447:79 *1489:CLK 40.6721 
24 *447:75 *447:138 1.57429 
25 *447:138 *447:144 32.61 
26 *447:144 *1484:CLK 23 
27 *447:138 *447:151 4.90929 
28 *447:151 *1483:CLK 23 
29 *447:151 *447:158 8.72071 
30 *447:158 *447:160 15 
31 *447:160 *1481:CLK 45.8714 
32 *447:160 *447:173 3.66643 
33 *447:173 *1494:CLK 43.4064 
34 *447:173 *447:188 17.2579 
35 *447:188 *1490:CLK 23 
36 *447:188 *1495:CLK 31.2443 
37 *447:158 *1482:CLK 23 
38 *447:158 *1480:CLK 31.2443 
39 *447:64 *1479:CLK 23 
40 *447:10 *1478:CLK 40.61 
*END

*D_NET *448 0.0155517
*CONN
*I *1463:CLK I *D sky130_fd_sc_hd__dfrtp_2
*I *1462:CLK I *D sky130_fd_sc_hd__dfstp_2
*I *1460:CLK I *D sky130_fd_sc_hd__dfrtp_2
*I *1459:CLK I *D sky130_fd_sc_hd__dfstp_2
*I *1458:CLK I *D sky130_fd_sc_hd__dfstp_2
*I *1457:CLK I *D sky130_fd_sc_hd__dfstp_2
*I *1461:CLK I *D sky130_fd_sc_hd__dfrtp_2
*I *1467:CLK I *D sky130_fd_sc_hd__dfrtp_2
*I *1464:CLK I *D sky130_fd_sc_hd__dfstp_2
*I *1466:CLK I *D sky130_fd_sc_hd__dfrtp_2
*I *1465:CLK I *D sky130_fd_sc_hd__dfstp_2
*I *1419:GCLK O *D sky130_fd_sc_hd__dlclkp_2
*CAP
1 *1463:CLK 0.000189257
2 *1462:CLK 0.000206967
3 *1460:CLK 0.00025634
4 *1459:CLK 0.000100616
5 *1458:CLK 0.000382396
6 *1457:CLK 0
7 *1461:CLK 0
8 *1467:CLK 0
9 *1464:CLK 4.32077e-05
10 *1466:CLK 1.96873e-05
11 *1465:CLK 0
12 *1419:GCLK 5.68399e-05
13 *448:97 0.000478033
14 *448:84 0.000597273
15 *448:75 0.000584534
16 *448:69 0.000989024
17 *448:60 0.000191141
18 *448:52 0.000800645
19 *448:45 0.000500103
20 *448:41 0.000918309
21 *448:30 0.00156876
22 *448:17 0.00140292
23 *448:6 0.000461649
24 *1458:CLK *1020:B 2.64616e-05
25 *1458:CLK *1142:A 4.96168e-05
26 *1458:CLK *475:10 0.000138727
27 *1458:CLK *523:38 0.000121076
28 *1458:CLK *559:37 0
29 *1459:CLK *477:67 0.000267425
30 *1459:CLK *479:22 8.82787e-05
31 *1460:CLK *523:38 0.000383586
32 *1460:CLK *600:12 0
33 *1462:CLK *480:27 1.76557e-05
34 *1462:CLK *557:28 1.15883e-05
35 *1463:CLK *1464:SET_B 7.75274e-05
36 *1463:CLK *483:27 0
37 *1466:CLK *607:49 6.33258e-05
38 *448:6 *1419:CLK 4.67488e-05
39 *448:17 *1139:B1 4.80633e-05
40 *448:17 *517:70 0
41 *448:17 *555:17 0.000232855
42 *448:17 *601:68 2.62931e-05
43 *448:17 *607:49 0.000352993
44 *448:30 *1466:RESET_B 8.79516e-05
45 *448:41 *483:8 5.79715e-05
46 *448:45 *1464:SET_B 1.40087e-05
47 *448:60 *480:41 0.000188544
48 *448:60 *482:20 0.000209025
49 *448:69 *476:10 1.59094e-05
50 *448:75 *476:10 7.4218e-05
51 *448:75 *479:34 0
52 *448:75 *480:10 0.000158828
53 *448:75 *480:27 0
54 *448:75 *480:87 3.53115e-05
55 *448:75 *481:20 0.000168985
56 *448:84 *480:87 2.30292e-05
57 *448:97 *1142:A 0.000184682
58 *448:97 *1142:C 4.15283e-06
59 *448:97 *523:38 0.000227198
60 *1144:C *448:60 0.000185368
61 *1464:D *448:41 2.64616e-05
62 *49:6 *448:52 7.88828e-05
63 *53:10 *1462:CLK 0.00023005
64 *53:10 *448:75 0.0001884
65 *55:12 *1463:CLK 0
66 *55:12 *448:45 0
67 *57:18 *448:17 7.57389e-05
68 *58:6 *448:30 0.000288248
69 *156:18 *1466:CLK 6.33258e-05
70 *156:18 *448:17 0.000118526
71 *156:18 *448:45 4.36401e-06
72 *156:37 *448:60 0.000123712
73 *156:37 *448:75 9.28078e-06
74 *197:26 *448:30 2.05386e-05
75 *197:26 *448:41 1.75156e-05
76 *198:14 *448:6 4.67488e-05
77 *198:14 *448:17 4.67488e-05
78 *200:14 *1463:CLK 7.88926e-05
79 *220:10 *448:17 1.02029e-05
80 *237:8 *1460:CLK 0
81 *237:39 *1459:CLK 0.000228909
82 *238:17 *448:69 0.000138607
83 *248:8 *1462:CLK 0
84 *253:10 *1463:CLK 9.90119e-05
85 *253:10 *448:45 0.000257029
86 *405:20 *1463:CLK 5.50106e-05
87 *405:32 *1463:CLK 1.03836e-05
*RES
1 *1419:GCLK *448:6 24.0979 
2 *448:6 *1465:CLK 23 
3 *448:6 *448:17 23.99 
4 *448:17 *1466:CLK 38.8493 
5 *448:17 *448:30 27.5321 
6 *448:30 *1464:CLK 23.8493 
7 *448:30 *448:41 21.3386 
8 *448:41 *448:45 18.6664 
9 *448:45 *1467:CLK 23 
10 *448:45 *448:52 5.38571 
11 *448:52 *448:60 35.4893 
12 *448:60 *1461:CLK 23 
13 *448:52 *448:69 19.4329 
14 *448:69 *448:75 26.5586 
15 *448:75 *1457:CLK 23 
16 *448:75 *448:84 16.5743 
17 *448:84 *1458:CLK 45.5193 
18 *448:84 *448:97 3.31429 
19 *448:97 *1459:CLK 42.9093 
20 *448:97 *1460:CLK 43.4271 
21 *448:69 *1462:CLK 42.06 
22 *448:41 *1463:CLK 41.8321 
*END

*D_NET *449 0.0326962
*CONN
*I *1449:CLK I *D sky130_fd_sc_hd__dfxtp_2
*I *1450:CLK I *D sky130_fd_sc_hd__dfxtp_2
*I *1448:CLK I *D sky130_fd_sc_hd__dfxtp_2
*I *1447:CLK I *D sky130_fd_sc_hd__dfxtp_2
*I *1452:CLK I *D sky130_fd_sc_hd__dfxtp_2
*I *1451:CLK I *D sky130_fd_sc_hd__dfxtp_2
*I *1456:CLK I *D sky130_fd_sc_hd__dfxtp_2
*I *1455:CLK I *D sky130_fd_sc_hd__dfxtp_2
*I *1444:CLK I *D sky130_fd_sc_hd__dfrtp_2
*I *1446:CLK I *D sky130_fd_sc_hd__dfrtp_2
*I *1445:CLK I *D sky130_fd_sc_hd__dfrtp_2
*I *1442:CLK I *D sky130_fd_sc_hd__dfrtp_2
*I *1443:CLK I *D sky130_fd_sc_hd__dfrtp_2
*I *1453:CLK I *D sky130_fd_sc_hd__dfxtp_2
*I *1454:CLK I *D sky130_fd_sc_hd__dfxtp_2
*I *1440:CLK I *D sky130_fd_sc_hd__dfrtp_2
*I *1441:CLK I *D sky130_fd_sc_hd__dfrtp_2
*I *1439:CLK I *D sky130_fd_sc_hd__dfrtp_2
*I *1420:GCLK O *D sky130_fd_sc_hd__dlclkp_2
*CAP
1 *1449:CLK 0
2 *1450:CLK 0
3 *1448:CLK 3.5466e-05
4 *1447:CLK 0
5 *1452:CLK 0.000485105
6 *1451:CLK 0
7 *1456:CLK 0
8 *1455:CLK 2.45748e-05
9 *1444:CLK 2.52923e-05
10 *1446:CLK 0
11 *1445:CLK 0.000208843
12 *1442:CLK 0.000194548
13 *1443:CLK 4.40909e-05
14 *1453:CLK 8.43944e-05
15 *1454:CLK 1.97948e-05
16 *1440:CLK 4.01155e-05
17 *1441:CLK 0
18 *1439:CLK 0
19 *1420:GCLK 0
20 *449:242 0.000319516
21 *449:234 0.000725033
22 *449:219 0.000723088
23 *449:190 0.00122079
24 *449:160 0.000372474
25 *449:121 0.000504077
26 *449:119 0.000745688
27 *449:115 0.00107914
28 *449:111 0.00101916
29 *449:94 0.00125427
30 *449:83 0.000759914
31 *449:67 9.59622e-05
32 *449:56 0.00038808
33 *449:46 0.0011048
34 *449:44 0.00130652
35 *449:38 0.00105361
36 *449:36 0.000578155
37 *449:30 0.000577723
38 *449:26 0.00114794
39 *449:22 0.00116867
40 *449:4 0.00134178
41 *1445:CLK *1032:B1 4.05638e-05
42 *1445:CLK *494:16 2.8661e-05
43 *1452:CLK *1522:A 0.000128486
44 *1452:CLK *567:37 0.000449883
45 *1452:CLK *573:28 5.80848e-05
46 *1452:CLK *575:37 7.53384e-06
47 *1454:CLK *456:214 1.94693e-05
48 *449:22 *1420:CLK 1.34914e-05
49 *449:22 *456:212 9.28078e-06
50 *449:22 *596:55 0.000361022
51 *449:22 *617:61 4.49877e-05
52 *449:22 *630:62 4.51926e-05
53 *449:26 *562:36 5.3304e-05
54 *449:30 *1104:B 5.91692e-05
55 *449:30 *562:36 0.000194751
56 *449:30 *564:10 1.41324e-05
57 *449:36 *580:22 0.000327867
58 *449:36 *595:41 0.000251436
59 *449:38 *1269:B1_N 4.34745e-05
60 *449:38 *580:22 0.000813357
61 *449:38 *595:41 0.000145188
62 *449:44 *1269:B1_N 0.000189364
63 *449:44 *1440:RESET_B 0.000260339
64 *449:44 *490:10 7.93359e-05
65 *449:44 *580:22 9.84794e-05
66 *449:46 *1023:B 2.33744e-05
67 *449:46 *489:28 2.64616e-05
68 *449:83 *580:22 5.83599e-05
69 *449:83 *596:12 7.17297e-05
70 *449:94 *578:10 1.43064e-05
71 *449:94 *580:10 6.15174e-05
72 *449:94 *580:12 5.97606e-05
73 *449:94 *580:22 2.17571e-05
74 *449:94 *596:12 0.000154164
75 *449:94 *599:49 6.97654e-05
76 *449:94 *629:28 0
77 *449:111 *571:10 0.000389033
78 *449:111 *575:16 2.91026e-05
79 *449:111 *578:39 1.59094e-05
80 *449:111 *599:35 6.5293e-05
81 *449:111 *599:49 6.63112e-05
82 *449:111 *626:28 4.30894e-05
83 *449:115 *575:16 2.92911e-06
84 *449:121 *1032:B1 0.000133951
85 *449:160 *1032:B1 0
86 *449:160 *1445:RESET_B 0.000132028
87 *449:160 *492:37 0
88 *449:160 *597:42 0.00011352
89 *449:190 *564:10 5.76197e-05
90 *449:190 *569:45 0.000130382
91 *449:190 *599:68 2.80852e-05
92 *449:219 *1087:A2_N 2.05503e-05
93 *449:219 *1420:CLK 0.000151448
94 *449:219 *578:56 5.73402e-05
95 *449:234 *602:73 2.68142e-05
96 *449:234 *602:94 0.000201629
97 *449:242 *1230:B 0.000207113
98 *449:242 *499:10 1.01436e-05
99 *638:DIODE *449:115 0.000189155
100 *638:DIODE *449:119 0.000194912
101 *1098:B *449:22 8.14021e-05
102 *1108:A1 *449:190 0.000235266
103 *1226:A1 *1448:CLK 5.67058e-05
104 *1226:A2 *449:219 1.05441e-05
105 *1226:A2 *449:234 4.89731e-05
106 *1240:A2 *449:242 4.7803e-05
107 *1248:C *449:190 7.74688e-05
108 *1281:B *449:30 1.75524e-05
109 *1440:D *449:44 2.7443e-05
110 *1440:D *449:46 1.94693e-05
111 *1442:D *1442:CLK 8.47233e-05
112 *1445:D *1445:CLK 5.40241e-05
113 *1447:D *449:22 1.64354e-05
114 *1448:D *1448:CLK 5.67058e-05
115 *1452:D *1452:CLK 0.000304496
116 *1453:D *1453:CLK 1.74843e-05
117 *1455:D *449:36 0.000143599
118 *59:16 *449:56 0.000155159
119 *61:10 *449:56 0
120 *62:8 *1442:CLK 0
121 *62:8 *1445:CLK 0
122 *62:8 *449:121 0
123 *68:8 *449:234 0.000161648
124 *73:8 *449:94 9.28078e-06
125 *73:8 *449:111 9.22555e-05
126 *74:8 *449:83 1.6844e-05
127 *126:8 *449:56 1.14452e-05
128 *126:8 *449:67 0
129 *128:32 *449:111 6.39489e-06
130 *129:24 *449:111 0.000139352
131 *130:32 *449:160 0
132 *132:10 *1448:CLK 1.41077e-05
133 *132:10 *449:22 9.87985e-06
134 *132:18 *449:22 0.000135037
135 *132:30 *449:22 0.000316338
136 *134:10 *449:38 0.000112024
137 *139:32 *1445:CLK 0
138 *140:12 *1445:CLK 0
139 *142:10 *1442:CLK 6.10551e-06
140 *142:22 *449:30 0.000334069
141 *142:22 *449:190 0.000389097
142 *143:32 *1445:CLK 0.000150305
143 *194:24 *449:22 8.57325e-05
144 *202:22 *449:190 0.000124902
145 *203:16 *1452:CLK 1.24371e-05
146 *203:16 *449:190 1.41172e-05
147 *258:44 *449:36 0.000520207
148 *258:66 *1454:CLK 5.50049e-05
149 *273:18 *449:111 2.4526e-05
150 *275:22 *449:111 4.56255e-05
151 *279:10 *449:219 1.74874e-06
152 *279:10 *449:234 4.95487e-06
153 *280:62 *449:234 4.08664e-05
154 *280:62 *449:242 0.000178227
155 *284:22 *449:234 0.000360914
156 *287:16 *449:22 0.000528273
157 *294:16 *449:234 1.59094e-05
158 *294:16 *449:242 5.25011e-05
159 *295:12 *449:242 7.128e-05
160 *297:10 *449:234 0.000126192
161 *298:8 *449:242 0.000283039
162 *298:19 *449:242 7.48331e-05
163 *299:38 *449:190 0
164 *306:32 *449:22 6.43861e-05
165 *306:32 *449:26 6.53382e-05
166 *310:22 *1452:CLK 6.01917e-05
167 *310:22 *449:190 5.68329e-05
168 *311:34 *1453:CLK 7.13507e-05
169 *312:35 *1442:CLK 0
170 *313:18 *449:111 0.000160737
171 *314:10 *1442:CLK 0.000232744
172 *314:10 *449:121 2.42715e-05
173 *314:39 *1452:CLK 0.000219383
174 *321:18 *449:44 6.2574e-06
175 *321:18 *449:46 0.000114991
176 *321:33 *1453:CLK 9.0778e-05
177 *322:24 *449:56 3.86688e-05
178 *322:24 *449:67 6.14498e-05
179 *323:12 *449:56 2.58738e-05
180 *324:10 *449:111 4.5051e-05
181 *324:14 *449:94 0
182 *328:14 *449:38 7.67478e-05
183 *335:18 *1452:CLK 8.74204e-05
*RES
1 *1420:GCLK *449:4 23 
2 *449:4 *449:22 49.5543 
3 *449:22 *449:26 17.0507 
4 *449:26 *449:30 20.7793 
5 *449:30 *449:36 10.3157 
6 *449:36 *449:38 9.19714 
7 *449:38 *449:44 10.3157 
8 *449:44 *449:46 7.76786 
9 *449:46 *449:56 36.815 
10 *449:56 *1439:CLK 23 
11 *449:46 *449:67 31.9057 
12 *449:67 *1441:CLK 23 
13 *449:44 *1440:CLK 23.8493 
14 *449:38 *449:83 17.2579 
15 *449:83 *1454:CLK 38.6214 
16 *449:83 *449:94 9.30071 
17 *449:94 *1453:CLK 40.5479 
18 *449:94 *449:111 27.0143 
19 *449:111 *449:115 5.88286 
20 *449:115 *449:119 18.9564 
21 *449:119 *449:121 4.72286 
22 *449:121 *1443:CLK 38.6214 
23 *449:121 *1442:CLK 42.5364 
24 *449:119 *1445:CLK 42.9093 
25 *449:115 *449:160 36.8357 
26 *449:160 *1446:CLK 23 
27 *449:111 *1444:CLK 23.4971 
28 *449:36 *1455:CLK 23.4971 
29 *449:30 *1456:CLK 23 
30 *449:26 *449:190 13.2571 
31 *449:190 *1451:CLK 38 
32 *449:190 *1452:CLK 49.6829 
33 *449:22 *1447:CLK 23 
34 *449:4 *449:219 19.3086 
35 *449:219 *1448:CLK 39.0979 
36 *449:219 *449:234 23.8657 
37 *449:234 *449:242 37.83 
38 *449:242 *1450:CLK 23 
39 *449:234 *1449:CLK 23 
*END

*D_NET *450 0.00178243
*CONN
*I *1578:addr[6] I *D tt_rom
*I *1022:Y O *D sky130_fd_sc_hd__nand2_2
*CAP
1 *1578:addr[6] 5.67793e-05
2 *1022:Y 0.000485439
3 *450:16 0.000542218
4 *1578:addr[6] *1578:addr[5] 1.80383e-05
5 *1578:addr[6] *1578:addr[7] 1.72461e-05
6 *450:16 *1578:addr[8] 0.000662714
*RES
1 *1022:Y *450:16 49.6829 
2 *450:16 *1578:addr[6] 1.11857 
*END

*D_NET *451 0.00375014
*CONN
*I *1578:addr[7] I *D tt_rom
*I *1041:Y O *D sky130_fd_sc_hd__xnor2_2
*CAP
1 *1578:addr[7] 0.00093798
2 *1041:Y 0.000193835
3 *451:10 0.00113182
4 *1578:addr[7] *1578:addr[5] 0.000521324
5 *1578:addr[7] *1578:addr[8] 1.60168e-05
6 *1578:addr[7] *1578:addr[11] 0.000372837
7 *1578:addr[7] *453:28 0.000480699
8 *1578:addr[7] *625:46 2.04785e-05
9 *1578:addr[6] *1578:addr[7] 1.72461e-05
10 *146:23 *451:10 5.79118e-05
*RES
1 *1041:Y *451:10 49.1382 
2 *451:10 *1578:addr[7] 27.1623 
*END

*D_NET *452 0.00596247
*CONN
*I *1578:addr[8] I *D tt_rom
*I *1046:X O *D sky130_fd_sc_hd__xor2_2
*CAP
1 *1578:addr[8] 0.000417715
2 *1046:X 0.000114135
3 *452:16 0.0014907
4 *452:8 0.00118712
5 *1578:addr[8] *1578:addr[9] 1.68959e-05
6 *1578:addr[8] *1578:addr[10] 0.00036354
7 *452:8 *453:28 0
8 *452:8 *559:124 0
9 *452:8 *613:66 8.04879e-05
10 *452:16 *1578:addr[11] 3.81009e-05
11 *452:16 *453:28 0.000251574
12 *452:16 *625:22 0.0013196
13 *452:16 *625:46 3.87221e-06
14 *1578:addr[7] *1578:addr[8] 1.60168e-05
15 *180:12 *452:16 0
16 *450:16 *1578:addr[8] 0.000662714
*RES
1 *1046:X *452:8 39.5536 
2 *452:8 *452:16 47.7729 
3 *452:16 *1578:addr[8] 40.9993 
*END

*D_NET *453 0.00748921
*CONN
*I *1578:addr[9] I *D tt_rom
*I *1053:Y O *D sky130_fd_sc_hd__xnor2_2
*CAP
1 *1578:addr[9] 0.000152869
2 *1053:Y 3.20948e-05
3 *453:28 0.00206612
4 *453:8 0.00194535
5 *1578:addr[9] *1578:addr[10] 6.76243e-06
6 *453:28 *1021:A1 0
7 *453:28 *1578:addr[11] 7.17569e-06
8 *453:28 *577:43 0.000108085
9 *453:28 *613:66 0
10 *453:28 *625:22 0.000658405
11 *453:28 *625:46 4.93791e-05
12 *1045:B *453:28 6.55012e-05
13 *1046:B *453:8 6.01055e-05
14 *1046:B *453:28 6.69637e-06
15 *1578:addr[7] *453:28 0.000480699
16 *1578:addr[8] *1578:addr[9] 1.68959e-05
17 *148:32 *453:8 6.01895e-05
18 *148:32 *453:28 0.000131443
19 *151:10 *453:8 1.01436e-05
20 *180:12 *453:28 0.00137972
21 *452:8 *453:28 0
22 *452:16 *453:28 0.000251574
*RES
1 *1053:Y *453:8 38.8493 
2 *453:8 *453:28 47.8908 
3 *453:28 *1578:addr[9] 9.75036 
*END

*D_NET *454 0.00743356
*CONN
*I *1578:addr[10] I *D tt_rom
*I *1059:X O *D sky130_fd_sc_hd__xor2_2
*CAP
1 *1578:addr[10] 0.00110733
2 *1059:X 0.00131593
3 *454:10 0.00242326
4 *1578:addr[10] *1578:addr[11] 0.000194717
5 *454:10 *1021:A1 0.000272383
6 *454:10 *1039:C 0.000130134
7 *454:10 *560:23 0.00010018
8 *454:10 *613:66 1.22822e-05
9 *454:10 *615:84 0.000111226
10 *454:10 *615:86 0.000123516
11 *454:10 *615:103 4.18889e-05
12 *1022:A *1578:addr[10] 0.000570473
13 *1048:A *454:10 0.000156058
14 *1080:A *1578:addr[10] 9.84794e-05
15 *1160:B *454:10 5.73309e-05
16 *1578:addr[8] *1578:addr[10] 0.00036354
17 *1578:addr[9] *1578:addr[10] 6.76243e-06
18 *136:8 *1578:addr[10] 1.72202e-05
19 *136:8 *454:10 0.000317553
20 *150:10 *454:10 1.32939e-05
*RES
1 *1059:X *454:10 49.7421 
2 *454:10 *1578:addr[10] 33.5807 
*END

*D_NET *455 0.00998485
*CONN
*I *1578:addr[11] I *D tt_rom
*I *1066:Y O *D sky130_fd_sc_hd__xnor2_2
*CAP
1 *1578:addr[11] 0.00233528
2 *1066:Y 0.000131281
3 *455:10 0.00246656
4 *1578:addr[11] *477:26 0.000295343
5 *1578:addr[11] *577:43 0.00341609
6 *1578:addr[11] *614:74 0
7 *1059:B *455:10 0
8 *1578:addr[7] *1578:addr[11] 0.000372837
9 *1578:addr[10] *1578:addr[11] 0.000194717
10 *151:39 *455:10 0
11 *180:32 *1578:addr[11] 0.000645417
12 *405:20 *455:10 8.20562e-05
13 *452:16 *1578:addr[11] 3.81009e-05
14 *453:28 *1578:addr[11] 7.17569e-06
*RES
1 *1066:Y *455:10 48.4339 
2 *455:10 *1578:addr[11] 21.0761 
*END

*D_NET *456 0.0398625
*CONN
*I *1579:clk I *D incrementer
*I *1468:CLK I *D sky130_fd_sc_hd__dfxtp_2
*I *1472:CLK I *D sky130_fd_sc_hd__dfxtp_2
*I *1471:CLK I *D sky130_fd_sc_hd__dfxtp_2
*I *1473:CLK I *D sky130_fd_sc_hd__dfxtp_2
*I *1469:CLK I *D sky130_fd_sc_hd__dfxtp_2
*I *1470:CLK I *D sky130_fd_sc_hd__dfxtp_2
*I *1475:CLK I *D sky130_fd_sc_hd__dfxtp_2
*I *1420:CLK I *D sky130_fd_sc_hd__dlclkp_2
*I *1421:CLK I *D sky130_fd_sc_hd__dfxtp_2
*I *1474:CLK I *D sky130_fd_sc_hd__dfxtp_2
*I *1422:CLK I *D sky130_fd_sc_hd__dfxtp_2
*I *645:CLK I *D sky130_fd_sc_hd__dlclkp_2
*I *1419:CLK I *D sky130_fd_sc_hd__dlclkp_2
*I *1418:CLK I *D sky130_fd_sc_hd__dlclkp_2
*I *1556:X O *D sky130_fd_sc_hd__clkbuf_16
*CAP
1 *1579:clk 0.0012591
2 *1468:CLK 0.000138597
3 *1472:CLK 0
4 *1471:CLK 6.63056e-05
5 *1473:CLK 0.000592101
6 *1469:CLK 0
7 *1470:CLK 0.000138208
8 *1475:CLK 0
9 *1420:CLK 0.00102643
10 *1421:CLK 0
11 *1474:CLK 0
12 *1422:CLK 0
13 *645:CLK 0.00179225
14 *1419:CLK 0.000863836
15 *1418:CLK 0.00150817
16 *1556:X 0.000376506
17 *456:214 0.00401139
18 *456:212 0.00321105
19 *456:158 0.000699208
20 *456:152 0.000481862
21 *456:148 0.000568193
22 *456:144 0.000537022
23 *456:133 0.000671874
24 *456:124 0.000514226
25 *456:103 0.00149144
26 *456:86 7.30587e-05
27 *456:70 0.00014942
28 *456:56 0.00108604
29 *456:52 0.000672361
30 *456:48 0.00115905
31 *456:8 0.00162185
32 *645:CLK *1286:B1 5.3304e-05
33 *645:CLK *508:48 4.83479e-05
34 *645:CLK *557:71 7.86537e-05
35 *1418:CLK *1394:B 9.88574e-06
36 *1418:CLK *517:52 0.000364608
37 *1418:CLK *535:10 0.000364553
38 *1418:CLK *606:10 0
39 *1418:CLK *606:36 5.36306e-05
40 *1418:CLK *606:49 5.05615e-05
41 *1419:CLK *1284:A1 0.000259534
42 *1419:CLK *555:17 0.000259534
43 *1419:CLK *601:68 5.50106e-05
44 *1420:CLK *1180:A 1.5769e-05
45 *1420:CLK *561:35 6.83927e-05
46 *1420:CLK *596:79 0.000175657
47 *1420:CLK *617:61 5.11944e-05
48 *1468:CLK *461:81 7.91102e-05
49 *1470:CLK *1424:RESET_B 4.67488e-05
50 *1471:CLK *1498:A 7.1349e-05
51 *1579:clk *1439:RESET_B 0.000369371
52 *1579:clk *489:10 7.11269e-05
53 *1579:clk *491:36 2.70184e-05
54 *1579:clk *597:65 9.83066e-05
55 *1579:clk *597:94 0
56 *1579:clk *619:28 9.3762e-05
57 *1579:clk *624:28 0
58 *1579:clk *633:8 0
59 *1579:clk *633:24 3.87221e-06
60 *456:8 *534:8 0.000578833
61 *456:48 *1298:C 4.31255e-05
62 *456:48 *1503:A 0.000267167
63 *456:48 *1506:A 9.41704e-05
64 *456:48 *548:25 0.000108278
65 *456:48 *551:12 0.000267381
66 *456:52 *637:10 0.000276557
67 *456:56 *508:40 4.2062e-05
68 *456:56 *557:71 4.67488e-05
69 *456:70 *556:8 0.000186511
70 *456:70 *635:12 0.000180823
71 *456:86 *486:20 0.000161316
72 *456:103 *1009:A 0
73 *456:103 *569:81 0.000221048
74 *456:124 *461:81 0.000188463
75 *456:124 *465:59 4.21594e-06
76 *456:133 *461:81 0.000635268
77 *456:133 *465:59 5.69056e-05
78 *456:133 *474:39 0
79 *456:144 *461:81 0.000224713
80 *456:148 *1498:A 0.000294145
81 *456:148 *1549:A 0.000308946
82 *456:152 *1498:A 0.000206914
83 *456:158 *635:12 0.000223043
84 *456:212 *1096:A1 0.000146413
85 *456:212 *1096:B1 2.56863e-05
86 *456:212 *596:55 0.000181797
87 *456:212 *617:61 5.13475e-05
88 *456:212 *630:62 8.26142e-05
89 *456:212 *631:54 2.35785e-05
90 *456:214 *1096:A1 0.000595269
91 *456:214 *1202:B2 0.000224283
92 *456:214 *490:26 2.11766e-05
93 *456:214 *491:6 0.000222467
94 *456:214 *504:8 5.50106e-05
95 *456:214 *564:37 2.58998e-05
96 uio_out[2] *1468:CLK 0
97 *1090:B2 *1420:CLK 0.000214035
98 *1098:B *456:212 1.13859e-05
99 *1236:B *456:103 1.40533e-05
100 *1236:C_N *456:103 0
101 *1282:A1 *456:214 4.5051e-05
102 *1454:CLK *456:214 1.94693e-05
103 *1469:D *1473:CLK 0.000189681
104 *1472:D *456:152 0.000314889
105 *1474:D *456:52 1.64354e-05
106 *13:15 *1418:CLK 0
107 *31:10 *1468:CLK 2.24608e-05
108 *33:8 *456:133 0
109 *33:8 *456:144 0
110 *41:10 *1473:CLK 5.73309e-05
111 *42:12 *456:158 2.46922e-05
112 *46:12 *456:48 2.51583e-05
113 *46:20 *456:48 1.22822e-05
114 *46:20 *456:52 0.000128885
115 *61:10 *1579:clk 0
116 *64:14 *456:212 4.77883e-05
117 *79:8 *456:158 0
118 *86:8 *1418:CLK 5.0866e-05
119 *88:8 *1418:CLK 0
120 *123:52 *1420:CLK 6.72929e-05
121 *126:24 *456:214 0.000186088
122 *132:30 *456:212 5.79559e-05
123 *138:22 *1579:clk 8.55047e-05
124 *141:92 *456:103 8.49023e-05
125 *144:10 *456:124 0
126 *173:10 *456:214 5.50106e-05
127 *173:28 *456:103 0.000748941
128 *173:47 *456:103 3.93904e-06
129 *175:20 *456:103 4.70852e-05
130 *187:10 *1420:CLK 0.000137651
131 *198:14 *1419:CLK 1.89178e-05
132 *235:18 *1419:CLK 3.7122e-06
133 *258:66 *456:214 0.000758935
134 *280:45 *456:103 0.000143278
135 *280:110 *456:103 0.000157692
136 *283:81 *456:103 2.50707e-05
137 *294:16 *456:103 0.000248465
138 *300:50 *456:103 0.000239555
139 *301:10 *456:103 0.000134984
140 *306:40 *456:214 1.21972e-05
141 *342:8 *645:CLK 0.00048103
142 *352:29 *456:48 5.3304e-05
143 *353:16 *1473:CLK 0.000103065
144 *354:27 *456:48 0.000451307
145 *355:10 *456:86 0.000161316
146 *378:8 *456:70 2.95125e-05
147 *424:36 *1418:CLK 0
148 *426:18 *456:158 1.70989e-05
149 *444:10 *456:70 9.1946e-06
150 *447:10 *1418:CLK 4.06849e-05
151 *447:18 *1418:CLK 0.000111644
152 *447:50 *1418:CLK 2.07357e-05
153 *448:6 *1419:CLK 4.67488e-05
154 *449:22 *1420:CLK 1.34914e-05
155 *449:22 *456:212 9.28078e-06
156 *449:219 *1420:CLK 0.000151448
*RES
1 *1556:X *456:8 44.3386 
2 *456:8 *1418:CLK 36.9261 
3 *1418:CLK *1419:CLK 36.1418 
4 *1419:CLK *456:48 43.8164 
5 *456:48 *456:52 9.69429 
6 *456:52 *456:56 3.50071 
7 *456:56 *645:CLK 13.9096 
8 *456:56 *456:70 33.3143 
9 *456:70 *1422:CLK 23 
10 *456:52 *1474:CLK 23 
11 *456:48 *456:86 32.2579 
12 *456:86 *1421:CLK 23 
13 *645:CLK *456:103 49.7096 
14 *456:103 *1420:CLK 10.7611 
15 *645:CLK *456:124 17.61 
16 *456:124 *1475:CLK 38 
17 *456:124 *456:133 8.59643 
18 *456:133 *1470:CLK 40.0507 
19 *456:133 *456:144 3.31429 
20 *456:144 *456:148 22.2914 
21 *456:148 *456:152 7.31214 
22 *456:152 *456:158 32.9621 
23 *456:158 *1469:CLK 23 
24 *456:158 *1473:CLK 34.4964 
25 *456:152 *1471:CLK 24.5743 
26 *456:148 *1472:CLK 23 
27 *456:144 *1468:CLK 40.61 
28 *1420:CLK *456:212 38.6793 
29 *456:212 *456:214 37.3064 
30 *456:214 *1579:clk 46.0402 
*END

*D_NET *457 0.0286439
*CONN
*I *1435:CLK I *D sky130_fd_sc_hd__dfrtp_2
*I *1424:CLK I *D sky130_fd_sc_hd__dfrtp_2
*I *1430:CLK I *D sky130_fd_sc_hd__dfrtp_2
*I *1428:CLK I *D sky130_fd_sc_hd__dfrtp_2
*I *1433:CLK I *D sky130_fd_sc_hd__dfrtp_2
*I *1438:CLK I *D sky130_fd_sc_hd__dfrtp_2
*I *1425:CLK I *D sky130_fd_sc_hd__dfrtp_2
*I *1426:CLK I *D sky130_fd_sc_hd__dfrtp_2
*I *1431:CLK I *D sky130_fd_sc_hd__dfrtp_2
*I *1427:CLK I *D sky130_fd_sc_hd__dfstp_2
*I *1429:CLK I *D sky130_fd_sc_hd__dfrtp_2
*I *1432:CLK I *D sky130_fd_sc_hd__dfrtp_2
*I *1434:CLK I *D sky130_fd_sc_hd__dfrtp_2
*I *1423:CLK I *D sky130_fd_sc_hd__dfrtp_2
*I *1436:CLK I *D sky130_fd_sc_hd__dfrtp_2
*I *1437:CLK I *D sky130_fd_sc_hd__dfrtp_2
*I *645:GCLK O *D sky130_fd_sc_hd__dlclkp_2
*CAP
1 *1435:CLK 0.000268828
2 *1424:CLK 0
3 *1430:CLK 2.34823e-05
4 *1428:CLK 0
5 *1433:CLK 0
6 *1438:CLK 0
7 *1425:CLK 0
8 *1426:CLK 0.000155085
9 *1431:CLK 0
10 *1427:CLK 0.000433158
11 *1429:CLK 6.99548e-05
12 *1432:CLK 0.000227967
13 *1434:CLK 0.000404784
14 *1423:CLK 0
15 *1436:CLK 0.000316034
16 *1437:CLK 0.000271227
17 *645:GCLK 0.000233351
18 *457:206 0.000189907
19 *457:188 0.000744748
20 *457:172 0.000623081
21 *457:114 0.000472002
22 *457:112 0.000688917
23 *457:108 0.000846291
24 *457:87 0.00131056
25 *457:85 0.000519365
26 *457:79 0.000469331
27 *457:75 0.000953989
28 *457:66 0.000723914
29 *457:49 0.00169474
30 *457:39 0.000796096
31 *457:33 0.000911275
32 *457:20 0.000845984
33 *457:16 0.000553568
34 *457:12 0.00099331
35 *457:8 0.00124034
36 *1426:CLK *473:10 0
37 *1427:CLK *1028:A 5.01469e-05
38 *1429:CLK *495:56 7.87147e-05
39 *1432:CLK *492:50 0
40 *1432:CLK *563:42 0.000147062
41 *1432:CLK *566:26 1.62361e-05
42 *1434:CLK *460:10 0.000162818
43 *1434:CLK *460:14 0.000170072
44 *1434:CLK *461:29 4.07808e-05
45 *1434:CLK *496:27 0.000111909
46 *1434:CLK *572:20 0
47 *1435:CLK *1430:RESET_B 0.000114083
48 *1435:CLK *471:52 0.000157299
49 *1436:CLK *562:51 1.01436e-05
50 *1436:CLK *602:126 0.000132817
51 *1437:CLK *473:51 5.56356e-05
52 *457:8 *1430:RESET_B 3.47781e-05
53 *457:8 *471:52 0.000424972
54 *457:12 *1428:RESET_B 0.000179826
55 *457:12 *1430:RESET_B 0.000257937
56 *457:12 *465:6 1.8561e-06
57 *457:12 *465:16 9.14268e-05
58 *457:20 *1335:A1 0.000141052
59 *457:20 *575:65 0.000202025
60 *457:39 *465:26 9.64943e-05
61 *457:39 *568:36 4.65096e-05
62 *457:49 *1330:A0 5.3304e-05
63 *457:49 *1337:A0 0.000359717
64 *457:49 *465:26 6.68064e-05
65 *457:49 *568:36 0.000385369
66 *457:66 *1173:A 9.58714e-05
67 *457:66 *1328:A0 0.00025134
68 *457:66 *462:50 0.0001262
69 *457:66 *463:33 5.50049e-05
70 *457:66 *572:31 3.50727e-05
71 *457:75 *1328:A0 0.000215216
72 *457:79 *473:35 4.21281e-05
73 *457:85 *473:19 5.67058e-05
74 *457:85 *473:35 0.000263317
75 *457:87 *572:20 0
76 *457:108 *1431:RESET_B 0.000132736
77 *457:108 *572:10 3.63313e-05
78 *457:112 *572:10 2.07484e-05
79 *457:114 *492:50 0
80 *457:114 *574:69 0
81 *457:172 *1191:A 0.00018282
82 *457:172 *1328:A0 3.70187e-05
83 *457:172 *470:31 0.000230823
84 *457:172 *471:21 0.000127272
85 *457:188 *1174:A 0.000144501
86 *457:188 *1174:B 0
87 *457:188 *1330:A1 0
88 *457:188 *1438:RESET_B 0.000206334
89 *457:188 *461:54 0.000216383
90 *457:188 *469:14 0.000135598
91 *457:188 *469:22 1.21484e-05
92 *457:188 *470:31 0.000227473
93 *457:188 *603:54 4.79641e-05
94 *457:206 *1335:A1 0.000126219
95 *457:206 *1428:RESET_B 0.000155154
96 *457:206 *466:30 0.000213027
97 *1179:B *457:85 0.000228903
98 *1329:A1 *1436:CLK 4.45839e-05
99 *1329:A1 *457:49 9.92336e-05
100 *1341:B1 *1436:CLK 8.46331e-05
101 *1341:B1 *457:49 5.10669e-05
102 *1342:A2 *457:20 5.60721e-05
103 *1430:D *457:12 1.95118e-05
104 *1435:D *1435:CLK 8.1796e-05
105 *1437:D *1437:CLK 3.22465e-05
106 *1438:D *457:172 4.06849e-05
107 *22:10 *1437:CLK 0
108 *24:12 *457:172 9.97256e-05
109 *26:6 *457:79 0.000382847
110 *26:6 *457:85 3.22879e-05
111 *29:18 *457:79 0.000214465
112 *32:8 *457:188 3.22879e-05
113 *37:14 *457:20 0.000144494
114 *37:14 *457:33 0
115 *37:26 *457:20 9.67842e-05
116 *85:8 *457:8 4.6908e-05
117 *107:10 *457:33 9.28078e-06
118 *107:10 *457:188 0.000231718
119 *109:10 *457:172 0.000182826
120 *111:8 *1426:CLK 0
121 *113:12 *1429:CLK 3.7122e-06
122 *117:10 *1436:CLK 1.91398e-05
123 *131:23 *1434:CLK 5.12254e-05
124 *140:12 *1427:CLK 0
125 *140:12 *1432:CLK 0
126 *140:12 *457:114 0
127 *177:12 *1436:CLK 7.11666e-05
128 *177:29 *1436:CLK 0.000238929
129 *177:41 *457:20 0.000141954
130 *179:47 *457:66 6.51477e-06
131 *204:10 *457:49 0.000172488
132 *254:8 *1437:CLK 0
133 *255:20 *457:20 6.3771e-05
134 *258:74 *1426:CLK 0
135 *258:74 *1434:CLK 0
136 *258:74 *457:87 0
137 *259:40 *457:66 2.05503e-05
138 *261:28 *457:87 0
139 *263:16 *457:172 0.00012073
140 *265:8 *457:188 5.72139e-05
141 *315:10 *1436:CLK 1.83564e-05
142 *318:32 *1437:CLK 1.19519e-05
143 *391:10 *457:20 0.000267167
144 *392:10 *457:33 0
145 *394:20 *457:66 0.000347802
146 *394:20 *457:75 0.000204672
147 *394:20 *457:172 0.000156379
148 *397:26 *1437:CLK 5.72853e-05
149 *397:26 *457:20 0.000233367
150 *397:26 *457:33 8.62633e-05
151 *398:12 *457:12 1.44715e-05
152 *398:12 *457:16 1.32939e-05
153 *398:12 *457:20 6.14641e-05
154 *400:8 *457:8 0
155 *419:26 *1435:CLK 1.7992e-05
156 *419:26 *457:8 9.20311e-06
157 *429:26 *457:8 0
*RES
1 *645:GCLK *457:8 43.7793 
2 *457:8 *457:12 25.15 
3 *457:12 *457:16 1.11857 
4 *457:16 *457:20 27.5321 
5 *457:20 *1437:CLK 41.9357 
6 *457:20 *457:33 1.90571 
7 *457:33 *457:39 16.595 
8 *457:39 *457:49 30.6807 
9 *457:49 *1436:CLK 44.4836 
10 *457:49 *457:66 40.4607 
11 *457:66 *1423:CLK 38 
12 *457:66 *457:75 2.96214 
13 *457:75 *457:79 22.7679 
14 *457:79 *457:85 21.4836 
15 *457:85 *457:87 2.25786 
16 *457:87 *1434:CLK 46.3479 
17 *457:87 *457:108 25.0464 
18 *457:108 *457:112 16.5743 
19 *457:112 *457:114 2.96214 
20 *457:114 *1432:CLK 41.5836 
21 *457:114 *1429:CLK 39.5743 
22 *457:112 *1427:CLK 45.0014 
23 *457:108 *1431:CLK 23 
24 *457:85 *1426:CLK 40.61 
25 *457:79 *1425:CLK 23 
26 *457:75 *457:172 29.3343 
27 *457:172 *1438:CLK 23 
28 *457:39 *1433:CLK 23 
29 *457:33 *457:188 30.7636 
30 *457:188 *1428:CLK 23 
31 *457:16 *1430:CLK 23.4971 
32 *457:12 *457:206 34.7229 
33 *457:206 *1424:CLK 23 
34 *457:8 *1435:CLK 43.7379 
*END

*D_NET *458 0.0105037
*CONN
*I *1549:A I *D sky130_fd_sc_hd__clkdlybuf4s25_1
*I *1553:A I *D sky130_fd_sc_hd__clkdlybuf4s25_1
*I *1140:X O *D sky130_fd_sc_hd__and2_2
*CAP
1 *1549:A 0.000276347
2 *1553:A 5.44481e-05
3 *1140:X 2.35907e-05
4 *458:22 0.00276675
5 *458:16 0.00365514
6 *458:8 0.00124277
7 *1553:A *471:52 0
8 *458:16 *1301:B 6.47648e-05
9 *458:16 *1302:B 0
10 *458:16 *487:14 0
11 *458:16 *514:41 0
12 *458:16 *516:58 7.64232e-05
13 *458:16 *546:50 0
14 *458:16 *551:12 1.59312e-05
15 *458:16 *552:28 0.000327881
16 *458:16 *609:41 0.000234019
17 *458:22 *471:38 0
18 *458:22 *471:52 0
19 *458:22 *514:35 0.00044458
20 *1299:B_N *458:8 5.50049e-05
21 *31:10 *1549:A 0.000271476
22 *38:12 *458:16 9.85586e-06
23 *45:12 *458:22 9.85586e-06
24 *78:10 *1553:A 0
25 *78:10 *458:22 0
26 *235:18 *458:8 2.64616e-05
27 *235:18 *458:16 6.48049e-05
28 *352:14 *458:16 0
29 *356:8 *458:16 0
30 *358:58 *458:16 0.000218952
31 *360:10 *458:16 0.000139404
32 *361:8 *458:16 0
33 *428:10 *458:16 0
34 *429:10 *458:16 0
35 *432:8 *458:16 0.000216292
36 *456:148 *1549:A 0.000308946
*RES
1 *1140:X *458:8 38.6214 
2 *458:8 *458:16 37.7443 
3 *458:16 *458:22 48.1014 
4 *458:22 *1553:A 38.8493 
5 *458:22 *1549:A 44.7114 
*END

*D_NET *459 0.00566232
*CONN
*I *1344:A1 I *D sky130_fd_sc_hd__mux2_1
*I *1200:A I *D sky130_fd_sc_hd__nor2_2
*I *1196:A I *D sky130_fd_sc_hd__nor2_2
*I *1335:A0 I *D sky130_fd_sc_hd__mux2_1
*I *1199:A I *D sky130_fd_sc_hd__xnor2_2
*I *1435:Q O *D sky130_fd_sc_hd__dfrtp_2
*CAP
1 *1344:A1 0
2 *1200:A 0
3 *1196:A 0.000405222
4 *1335:A0 0
5 *1199:A 0
6 *1435:Q 0.000114573
7 *459:35 0.00062616
8 *459:22 0.000428939
9 *459:20 0.00107773
10 *459:8 0.000984302
11 *1196:A *1194:B 5.50106e-05
12 *1196:A *1335:A1 0
13 *1196:A *464:8 0.00012577
14 *1196:A *466:30 0
15 *1196:A *598:40 5.50106e-05
16 *459:20 *596:100 0.000139357
17 *459:20 *636:12 1.10105e-05
18 *459:35 *464:8 0.000218032
19 *459:35 *473:51 0.000137651
20 uio_out[6] *1196:A 0
21 *1475:D *459:20 2.46181e-05
22 *78:10 *459:8 1.14452e-05
23 *268:8 *1196:A 4.08537e-05
24 *268:8 *459:35 0.000125147
25 *269:10 *459:20 0.000139346
26 *269:10 *459:22 0.0001396
27 *300:16 *459:22 0.000228903
28 *300:16 *459:35 9.45591e-05
29 *318:14 *459:20 0.000107466
30 *318:14 *459:22 0.000212192
31 *318:22 *459:35 1.97789e-05
32 *398:22 *459:20 0.000139647
33 *398:34 *459:8 0
34 *398:34 *459:20 0
35 *429:26 *459:8 0
36 *429:26 *459:20 0
*RES
1 *1435:Q *459:8 39.9057 
2 *459:8 *459:20 28.8993 
3 *459:20 *459:22 6.815 
4 *459:22 *1199:A 23 
5 *459:22 *459:35 21.2143 
6 *459:35 *1335:A0 38 
7 *459:35 *1196:A 43.6964 
8 *459:20 *1200:A 23 
9 *459:8 *1344:A1 38 
*END

*D_NET *460 0.0186122
*CONN
*I *1181:A I *D sky130_fd_sc_hd__xnor2_2
*I *1332:A0 I *D sky130_fd_sc_hd__mux2_1
*I *1176:A I *D sky130_fd_sc_hd__nor2_2
*I *1178:A I *D sky130_fd_sc_hd__nor2_2
*I *1431:Q O *D sky130_fd_sc_hd__dfrtp_2
*CAP
1 *1181:A 2.77218e-05
2 *1332:A0 0.000107697
3 *1176:A 0
4 *1178:A 0.000191604
5 *1431:Q 0.000119952
6 *460:34 0.00399296
7 *460:14 0.00421354
8 *460:10 0.00045216
9 *1181:A *572:31 2.64616e-05
10 *1332:A0 *461:18 5.67058e-05
11 *1332:A0 *571:25 0.000180218
12 *460:10 *1431:RESET_B 1.05235e-05
13 *460:10 *461:29 0.000156671
14 *460:14 *461:29 0.000231111
15 *460:14 *494:48 7.177e-05
16 *460:14 *496:27 0
17 *460:34 *461:97 5.44378e-05
18 *460:34 *471:66 0.000471198
19 *460:34 *494:48 2.31116e-05
20 *460:34 *566:14 0.000159505
21 *460:34 *566:26 0.00016502
22 *460:34 *580:44 0.000185847
23 *1434:CLK *460:10 0.000162818
24 *1434:CLK *460:14 0.000170072
25 *64:30 *460:34 0.000963903
26 *113:12 *1181:A 5.3304e-05
27 *127:8 *1332:A0 0.0002246
28 *129:8 *460:14 6.89486e-05
29 *129:8 *460:34 2.60807e-06
30 *144:26 *460:34 0.00357805
31 *176:58 *460:34 1.67025e-05
32 *179:66 *460:34 3.98968e-05
33 *211:24 *460:34 3.37649e-05
34 *257:12 *1178:A 4.45184e-05
35 *257:30 *460:34 0.000191676
36 *318:32 *460:34 0.00212405
37 *388:10 *1332:A0 3.90708e-05
*RES
1 *1431:Q *460:10 40.8793 
2 *460:10 *460:14 6.40071 
3 *460:14 *460:34 46.4384 
4 *460:34 *1178:A 40.6929 
5 *460:34 *1176:A 38 
6 *460:14 *1332:A0 41.48 
7 *460:10 *1181:A 38.6214 
*END

*D_NET *461 0.0304249
*CONN
*I *1176:B I *D sky130_fd_sc_hd__nor2_2
*I *1174:A I *D sky130_fd_sc_hd__nor2_2
*I *1179:A I *D sky130_fd_sc_hd__xnor2_2
*I *1332:A1 I *D sky130_fd_sc_hd__mux2_1
*I *1432:Q O *D sky130_fd_sc_hd__dfrtp_2
*CAP
1 *1176:B 5.16923e-05
2 *1174:A 2.77523e-05
3 *1179:A 0
4 *1332:A1 0
5 *1432:Q 0
6 *461:97 0.00183957
7 *461:81 0.00275584
8 *461:73 0.0025418
9 *461:54 0.0041744
10 *461:39 0.000509076
11 *461:29 0.0033991
12 *461:18 0.000291588
13 *461:4 0.000608807
14 *1174:A *1438:RESET_B 0.000144501
15 *1176:B *474:70 0
16 *1176:B *506:31 5.3304e-05
17 *461:18 *1014:A 2.64616e-05
18 *461:18 *494:48 4.98399e-06
19 *461:18 *495:56 4.96747e-05
20 *461:29 *474:18 0
21 *461:29 *494:48 6.11038e-05
22 *461:29 *495:56 0
23 *461:29 *572:20 0
24 *461:39 *492:50 0.000174617
25 *461:39 *574:69 0.000625855
26 *461:54 *1188:B 0
27 *461:54 *462:50 0.00146217
28 *461:54 *574:31 0.000481991
29 *461:54 *574:69 0.000354689
30 *461:54 *598:40 0.000161832
31 *461:73 *470:48 0.00158119
32 *461:73 *471:34 0.000259017
33 *461:81 *470:54 0
34 *461:81 *471:38 0.000208547
35 *461:81 *471:52 0.00106519
36 *461:81 *598:8 0.000110922
37 *461:97 *580:44 0.00013851
38 *461:97 *621:72 8.48518e-05
39 *461:97 *631:67 3.88045e-05
40 uio_oe[2] *461:54 0
41 uio_oe[3] *461:54 6.77729e-05
42 uio_oe[6] *461:54 0.000329929
43 uio_out[2] *461:81 0
44 *1179:B *461:39 0.000174615
45 *1208:A3 *461:18 5.3304e-05
46 *1235:C *461:81 5.15937e-05
47 *1332:A0 *461:18 5.67058e-05
48 *1434:CLK *461:29 4.07808e-05
49 *1468:CLK *461:81 7.91102e-05
50 *29:8 *461:39 0.000363095
51 *29:18 *461:54 0
52 *30:12 *461:81 2.12147e-05
53 *31:10 *461:81 2.05503e-05
54 *64:30 *461:97 0.000195923
55 *114:8 *461:39 0.000111462
56 *131:23 *461:18 3.24008e-05
57 *144:10 *461:81 0
58 *173:22 *461:97 0.000880649
59 *173:47 *461:97 0.000117848
60 *175:20 *461:81 0
61 *179:66 *461:81 0.00046008
62 *185:10 *461:97 5.58152e-06
63 *186:12 *1176:B 3.22879e-05
64 *211:24 *461:97 0.000316964
65 *257:12 *461:97 2.05503e-05
66 *257:30 *461:97 7.12426e-05
67 *260:24 *461:97 0
68 *261:28 *461:54 1.13839e-05
69 *275:30 *461:18 0.000124112
70 *277:25 *461:97 0.00137529
71 *281:10 *461:81 9.41566e-05
72 *284:22 *461:97 4.42495e-05
73 *287:41 *461:97 6.99019e-05
74 *293:10 *461:81 7.75329e-06
75 *293:20 *461:81 0
76 *388:10 *461:18 5.50049e-05
77 *456:124 *461:81 0.000188463
78 *456:133 *461:81 0.000635268
79 *456:144 *461:81 0.000224713
80 *457:188 *1174:A 0.000144501
81 *457:188 *461:54 0.000216383
82 *460:10 *461:29 0.000156671
83 *460:14 *461:29 0.000231111
84 *460:34 *461:97 5.44378e-05
*RES
1 *1432:Q *461:4 23 
2 *461:4 *461:18 35.6964 
3 *461:18 *1332:A1 23 
4 *461:4 *461:29 29.6596 
5 *461:29 *461:39 30.5626 
6 *461:39 *1179:A 23 
7 *461:29 *461:54 18.3074 
8 *461:54 *1174:A 39.5743 
9 *461:54 *461:73 40.2093 
10 *461:73 *461:81 42.1461 
11 *461:81 *461:97 39.0734 
12 *461:97 *1176:B 39.1186 
*END

*D_NET *462 0.0129223
*CONN
*I *1174:B I *D sky130_fd_sc_hd__nor2_2
*I *1172:A I *D sky130_fd_sc_hd__nor2_2
*I *1339:A0 I *D sky130_fd_sc_hd__mux2_1
*I *1177:A I *D sky130_fd_sc_hd__xnor2_2
*I *1434:Q O *D sky130_fd_sc_hd__dfrtp_2
*CAP
1 *1174:B 0.000345913
2 *1172:A 0
3 *1339:A0 0
4 *1177:A 0.00105711
5 *1434:Q 0
6 *462:50 0.00196393
7 *462:27 0.00186689
8 *462:12 0.00170958
9 *462:4 0.000901348
10 *1174:B *1188:B 0.000187743
11 *1174:B *1433:RESET_B 0
12 *1174:B *470:48 6.16531e-05
13 *1177:A *1012:A 3.59884e-05
14 *1177:A *492:37 1.41077e-05
15 *462:12 *1434:RESET_B 9.05654e-05
16 *462:12 *574:23 0.000217743
17 *462:27 *463:33 0.000136743
18 *462:50 *1329:B1_N 0.00012414
19 *462:50 *1519:A 0.000185183
20 *462:50 *463:33 5.50049e-05
21 *462:50 *568:28 0.00022945
22 *462:50 *574:31 0.000295226
23 *462:50 *598:40 3.56036e-06
24 *1175:B *462:12 0.000215512
25 *1177:B *1177:A 0.000130059
26 *1329:A1 *462:50 8.78765e-06
27 *1329:A2 *462:50 3.71706e-05
28 *1434:D *462:12 0.000110939
29 *37:26 *1174:B 5.54782e-05
30 *37:26 *462:50 1.23662e-05
31 *179:47 *462:50 7.37405e-05
32 *260:24 *462:50 0.000301416
33 *388:10 *1177:A 0.000854066
34 *395:10 *462:27 5.25011e-05
35 *457:66 *462:50 0.0001262
36 *457:188 *1174:B 0
37 *461:54 *462:50 0.00146217
*RES
1 *1434:Q *462:4 23 
2 *462:4 *462:12 40.2536 
3 *462:12 *1177:A 39.2607 
4 *462:4 *462:27 4.32929 
5 *462:27 *1339:A0 23 
6 *462:27 *462:50 44.4896 
7 *462:50 *1172:A 38 
8 *462:50 *1174:B 44.5457 
*END

*D_NET *463 0.0111459
*CONN
*I *1170:B I *D sky130_fd_sc_hd__nor2_2
*I *1172:B I *D sky130_fd_sc_hd__nor2_2
*I *1339:A1 I *D sky130_fd_sc_hd__mux2_1
*I *1175:A I *D sky130_fd_sc_hd__xnor2_2
*I *1436:Q O *D sky130_fd_sc_hd__dfrtp_2
*CAP
1 *1170:B 0.000319537
2 *1172:B 0
3 *1339:A1 0
4 *1175:A 0.00024007
5 *1436:Q 7.57365e-05
6 *463:60 0.000341008
7 *463:40 0.00105821
8 *463:33 0.000247747
9 *463:14 0.00124439
10 *463:8 0.00122997
11 *1170:B *1190:B 3.0781e-05
12 *1170:B *1337:A0 9.9025e-06
13 *1170:B *1436:RESET_B 7.68979e-05
14 *1170:B *469:30 2.05503e-05
15 *1170:B *598:44 9.7937e-05
16 *1175:A *1258:A 0.000539511
17 *1175:A *563:8 4.02603e-05
18 *463:8 *1436:RESET_B 0.000101527
19 *463:14 *1106:B 5.3304e-05
20 *463:14 *1258:A 1.00493e-05
21 *463:14 *473:51 3.16665e-05
22 *463:14 *563:8 0.000433246
23 *463:14 *570:10 0.000178517
24 *463:14 *575:49 0.000137651
25 *463:14 *599:10 5.3304e-05
26 *463:14 *602:126 0.000137651
27 *463:33 *472:28 0.000227686
28 *463:33 *571:56 0.000225587
29 *463:40 *1107:A 0
30 *463:40 *1337:A0 4.06624e-05
31 *463:40 *1436:RESET_B 0.000598478
32 *463:40 *488:22 1.1644e-05
33 *463:60 *467:28 0.000358846
34 *463:60 *469:22 8.88657e-05
35 *463:60 *469:30 0.00030762
36 *1334:A1 *463:60 1.77524e-05
37 *1336:A *463:60 0
38 *1340:A1 *463:14 0.000185605
39 *1340:B2 *463:14 5.3304e-05
40 *35:14 *1170:B 3.61747e-05
41 *107:10 *463:60 0.000100069
42 *173:66 *463:8 0.000101527
43 *173:66 *463:40 0.000222513
44 *203:8 *463:14 2.47815e-05
45 *388:10 *1175:A 0.000674112
46 *388:10 *463:14 0.000201169
47 *390:12 *463:60 0.000645037
48 *394:20 *463:14 6.82416e-05
49 *457:66 *463:33 5.50049e-05
50 *462:27 *463:33 0.000136743
51 *462:50 *463:33 5.50049e-05
*RES
1 *1436:Q *463:8 39.5536 
2 *463:8 *463:14 31.7164 
3 *463:14 *1175:A 32.8393 
4 *463:14 *463:33 35.365 
5 *463:33 *1339:A1 23 
6 *463:8 *463:40 8.59643 
7 *463:40 *463:60 27.2421 
8 *463:60 *1172:B 23 
9 *463:40 *1170:B 43.0336 
*END

*D_NET *464 0.00787872
*CONN
*I *1170:A I *D sky130_fd_sc_hd__nor2_2
*I *1331:A0 I *D sky130_fd_sc_hd__mux2_1
*I *1173:A I *D sky130_fd_sc_hd__xnor2_2
*I *1198:A I *D sky130_fd_sc_hd__nor2_2
*I *1437:Q O *D sky130_fd_sc_hd__dfrtp_2
*CAP
1 *1170:A 0.000169864
2 *1331:A0 0.000103649
3 *1173:A 0.000639049
4 *1198:A 0
5 *1437:Q 0.000190869
6 *464:29 0.000864114
7 *464:25 0.0012808
8 *464:10 0.00098952
9 *464:8 0.000190869
10 *1170:A *1192:A 0.000153501
11 *1170:A *1330:A0 0.000180089
12 *1170:A *1436:RESET_B 0.000168776
13 *1170:A *598:44 0.000161888
14 *1173:A *488:22 0.000223698
15 *1331:A0 *488:22 0.000128446
16 *464:25 *1198:B 1.09903e-05
17 *464:25 *1437:RESET_B 5.03619e-05
18 *464:25 *465:26 0.000117399
19 *464:25 *468:10 0.000103637
20 *464:25 *568:36 0.000473244
21 *464:29 *1330:A0 0.000105948
22 *464:29 *1436:RESET_B 0.000205824
23 uio_out[6] *464:8 9.43667e-05
24 *1196:A *464:8 0.00012577
25 *179:47 *1173:A 0.000678037
26 *254:8 *464:29 4.2477e-05
27 *255:20 *1173:A 5.61255e-06
28 *318:22 *464:8 1.01436e-05
29 *389:10 *1173:A 9.5877e-05
30 *457:66 *1173:A 9.58714e-05
31 *459:35 *464:8 0.000218032
*RES
1 *1437:Q *464:8 42.7229 
2 *464:8 *464:10 15 
3 *464:10 *1198:A 23 
4 *464:10 *464:25 30.4529 
5 *464:25 *464:29 17.9621 
6 *464:29 *1173:A 35.2421 
7 *464:29 *1331:A0 24.5743 
8 *464:25 *1170:A 42.7229 
*END

*D_NET *465 0.00667719
*CONN
*I *1200:B I *D sky130_fd_sc_hd__nor2_2
*I *1198:B I *D sky130_fd_sc_hd__nor2_2
*I *1331:A1 I *D sky130_fd_sc_hd__mux2_1
*I *1171:A I *D sky130_fd_sc_hd__xnor2_2
*I *1430:Q O *D sky130_fd_sc_hd__dfrtp_2
*CAP
1 *1200:B 0
2 *1198:B 4.62502e-05
3 *1331:A1 0
4 *1171:A 0
5 *1430:Q 4.40079e-05
6 *465:59 0.00015936
7 *465:34 0.000142656
8 *465:26 0.00126305
9 *465:16 0.00182494
10 *465:6 0.000861666
11 *465:6 *1430:RESET_B 7.28922e-05
12 *465:16 *1201:A 9.5877e-05
13 *465:16 *1430:RESET_B 3.08719e-06
14 *465:26 *1437:RESET_B 9.18637e-05
15 *465:26 *568:36 8.37293e-05
16 *465:26 *573:62 0.000151098
17 *465:34 *573:47 0.000350186
18 *465:34 *575:57 1.15883e-05
19 *465:59 *474:39 0
20 *33:8 *465:16 0.000190607
21 *144:10 *465:59 4.67998e-05
22 *173:47 *465:16 0.00019283
23 *254:8 *465:26 5.97615e-05
24 *254:8 *465:34 0.000183873
25 *255:20 *465:34 0.000140935
26 *398:12 *465:6 6.9805e-05
27 *398:12 *465:16 0.000144221
28 *456:124 *465:59 4.21594e-06
29 *456:133 *465:59 5.69056e-05
30 *457:12 *465:6 1.8561e-06
31 *457:12 *465:16 9.14268e-05
32 *457:39 *465:26 9.64943e-05
33 *457:49 *465:26 6.68064e-05
34 *464:25 *1198:B 1.09903e-05
35 *464:25 *465:26 0.000117399
*RES
1 *1430:Q *465:6 24.5743 
2 *465:6 *465:16 42.905 
3 *465:16 *465:26 45.2871 
4 *465:26 *465:34 34.5364 
5 *465:34 *1171:A 23 
6 *465:26 *1331:A1 23 
7 *465:16 *1198:B 24.1186 
8 *465:6 *465:59 32.9621 
9 *465:59 *1200:B 23 
*END

*D_NET *466 0.00395488
*CONN
*I *1201:A I *D sky130_fd_sc_hd__xnor2_2
*I *1335:A1 I *D sky130_fd_sc_hd__mux2_1
*I *1196:B I *D sky130_fd_sc_hd__nor2_2
*I *1194:B I *D sky130_fd_sc_hd__nor2_2
*I *1424:Q O *D sky130_fd_sc_hd__dfrtp_2
*CAP
1 *1201:A 5.60432e-05
2 *1335:A1 0.000253071
3 *1196:B 1.51417e-05
4 *1194:B 0.000165516
5 *1424:Q 0.000671175
6 *466:30 0.000473543
7 *466:19 0.000191312
8 *466:8 0.000848432
9 *1194:B *1194:A 1.37232e-05
10 *1194:B *598:40 9.55481e-05
11 *1196:B *598:40 2.93747e-05
12 *466:8 *1424:RESET_B 0.00013273
13 *466:8 *598:40 0.000198829
14 *466:30 *1428:RESET_B 7.75329e-06
15 *1196:A *1194:B 5.50106e-05
16 *1196:A *1335:A1 0
17 *1196:A *466:30 0
18 *1424:D *466:8 0.000141954
19 *268:8 *1335:A1 2.95461e-05
20 *457:20 *1335:A1 0.000141052
21 *457:206 *1335:A1 0.000126219
22 *457:206 *466:30 0.000213027
23 *465:16 *1201:A 9.5877e-05
*RES
1 *1424:Q *466:8 33.1707 
2 *466:8 *1194:B 26.9771 
3 *466:8 *466:19 0.497143 
4 *466:19 *1196:B 23.6214 
5 *466:19 *466:30 18.3143 
6 *466:30 *1335:A1 42.2464 
7 *466:30 *1201:A 39.0979 
*END

*D_NET *467 0.00623504
*CONN
*I *1197:A I *D sky130_fd_sc_hd__xnor2_2
*I *1194:A I *D sky130_fd_sc_hd__nor2_2
*I *1192:A I *D sky130_fd_sc_hd__nor2_2
*I *1330:A0 I *D sky130_fd_sc_hd__mux2_1
*I *1428:Q O *D sky130_fd_sc_hd__dfrtp_2
*CAP
1 *1197:A 0
2 *1194:A 1.57088e-05
3 *1192:A 0.000215443
4 *1330:A0 0.000205922
5 *1428:Q 0.000222801
6 *467:28 0.000792133
7 *467:24 0.000713233
8 *467:14 0.000437672
9 *467:10 0.000333717
10 *1192:A *1192:B 0
11 *467:10 *1428:RESET_B 0.000187734
12 *467:24 *598:40 4.5051e-05
13 *467:28 *468:14 0.000722682
14 *467:28 *468:22 0.000179473
15 *467:28 *469:22 0.000100061
16 *467:28 *469:30 0.000137368
17 *467:28 *598:40 5.41385e-05
18 uio_out[6] *467:24 9.4412e-05
19 *1170:A *1192:A 0.000153501
20 *1170:A *1330:A0 0.000180089
21 *1194:B *1194:A 1.37232e-05
22 *1336:A *1194:A 4.00259e-06
23 *1336:A *467:28 1.41077e-05
24 *32:8 *467:10 0.000226926
25 *35:14 *1192:A 5.68958e-05
26 *106:10 *467:24 5.50106e-05
27 *254:8 *1192:A 0.000107218
28 *254:8 *1330:A0 0.000271704
29 *255:10 *467:28 1.21972e-05
30 *266:10 *467:24 8.69132e-05
31 *266:10 *467:28 1.32314e-05
32 *267:8 *467:10 0
33 *267:8 *467:24 0
34 *390:12 *467:28 4.21281e-05
35 *392:10 *467:28 2.17486e-05
36 *457:49 *1330:A0 5.3304e-05
37 *463:60 *467:28 0.000358846
38 *464:29 *1330:A0 0.000105948
*RES
1 *1428:Q *467:10 43.1371 
2 *467:10 *467:14 17.0507 
3 *467:14 *467:24 36.3593 
4 *467:24 *467:28 26.5793 
5 *467:28 *1330:A0 42.64 
6 *467:28 *1192:A 41.9771 
7 *467:24 *1194:A 23.4971 
8 *467:14 *1197:A 23 
*END

*D_NET *468 0.00613354
*CONN
*I *1195:A I *D sky130_fd_sc_hd__xnor2_2
*I *1192:B I *D sky130_fd_sc_hd__nor2_2
*I *1330:A1 I *D sky130_fd_sc_hd__mux2_1
*I *1190:A I *D sky130_fd_sc_hd__nor2_2
*I *1433:Q O *D sky130_fd_sc_hd__dfrtp_2
*CAP
1 *1195:A 4.38406e-05
2 *1192:B 0.000115993
3 *1330:A1 0.000355899
4 *1190:A 0
5 *1433:Q 0.000278638
6 *468:29 0.000471892
7 *468:22 0.000493833
8 *468:14 0.00105588
9 *468:10 0.000884522
10 *1192:B *469:22 0.000137594
11 *1195:A *1433:RESET_B 0.000131735
12 *1195:A *598:40 0.000141879
13 *1330:A1 *469:22 4.64756e-05
14 *1330:A1 *573:62 4.77164e-06
15 *468:10 *1433:RESET_B 0.000216712
16 *468:10 *598:40 8.94394e-05
17 *468:22 *1190:B 0.000138145
18 *468:22 *1423:RESET_B 0.000221084
19 *468:22 *469:30 3.44001e-05
20 uio_oe[6] *468:22 0
21 uio_out[6] *468:10 0
22 *1192:A *1192:B 0
23 *35:14 *1192:B 2.64616e-05
24 *254:8 *1192:B 1.82497e-05
25 *254:8 *1330:A1 0.000220306
26 *457:188 *1330:A1 0
27 *464:25 *468:10 0.000103637
28 *467:28 *468:14 0.000722682
29 *467:28 *468:22 0.000179473
*RES
1 *1433:Q *468:10 43.0129 
2 *468:10 *468:14 23.2443 
3 *468:14 *468:22 37.2914 
4 *468:22 *1190:A 23 
5 *468:14 *468:29 15 
6 *468:29 *1330:A1 42.9093 
7 *468:29 *1192:B 40.5271 
8 *468:10 *1195:A 39.9057 
*END

*D_NET *469 0.0049237
*CONN
*I *1188:A I *D sky130_fd_sc_hd__nor2_2
*I *1193:A I *D sky130_fd_sc_hd__xnor2_2
*I *1190:B I *D sky130_fd_sc_hd__nor2_2
*I *1337:A0 I *D sky130_fd_sc_hd__mux2_1
*I *1438:Q O *D sky130_fd_sc_hd__dfrtp_2
*CAP
1 *1188:A 5.91272e-05
2 *1193:A 0
3 *1190:B 0.000106867
4 *1337:A0 0.000359566
5 *1438:Q 0.000297716
6 *469:30 0.000687718
7 *469:22 0.000375488
8 *469:14 0.000511046
9 *1190:B *598:44 0
10 *1337:A0 *568:36 0.000317969
11 *469:14 *470:31 0.000137368
12 *469:14 *598:44 0
13 *469:30 *1423:RESET_B 9.41704e-05
14 uio_oe[6] *1190:B 0
15 *1170:B *1190:B 3.0781e-05
16 *1170:B *1337:A0 9.9025e-06
17 *1170:B *469:30 2.05503e-05
18 *1192:B *469:22 0.000137594
19 *1330:A1 *469:22 4.64756e-05
20 *35:14 *1188:A 6.69705e-05
21 *265:8 *469:22 0.000130659
22 *386:10 *1337:A0 0.000160618
23 *389:10 *1337:A0 1.85275e-05
24 *457:49 *1337:A0 0.000359717
25 *457:188 *469:14 0.000135598
26 *457:188 *469:22 1.21484e-05
27 *463:40 *1337:A0 4.06624e-05
28 *463:60 *469:22 8.88657e-05
29 *463:60 *469:30 0.00030762
30 *467:28 *469:22 0.000100061
31 *467:28 *469:30 0.000137368
32 *468:22 *1190:B 0.000138145
33 *468:22 *469:30 3.44001e-05
*RES
1 *1438:Q *469:14 42.5986 
2 *469:14 *469:22 19.3293 
3 *469:22 *469:30 19.8989 
4 *469:30 *1337:A0 46.6896 
5 *469:30 *1190:B 40.4339 
6 *469:22 *1193:A 23 
7 *469:14 *1188:A 39.0979 
*END

*D_NET *470 0.00955373
*CONN
*I *1191:A I *D sky130_fd_sc_hd__xnor2_2
*I *1186:B I *D sky130_fd_sc_hd__nor2_2
*I *1188:B I *D sky130_fd_sc_hd__nor2_2
*I *1337:A1 I *D sky130_fd_sc_hd__mux2_1
*I *1423:Q O *D sky130_fd_sc_hd__dfrtp_2
*CAP
1 *1191:A 0.000126325
2 *1186:B 0
3 *1188:B 0.000188117
4 *1337:A1 0.000216935
5 *1423:Q 0
6 *470:54 0.000127736
7 *470:48 0.000557806
8 *470:31 0.00144527
9 *470:21 0.00119335
10 *470:6 0.000456872
11 *1337:A1 *574:31 5.88641e-05
12 *1337:A1 *574:41 4.77164e-06
13 *470:31 *1438:RESET_B 1.21999e-05
14 *470:48 *1433:RESET_B 0
15 *470:48 *471:34 0.00158379
16 uio_oe[6] *1337:A1 4.70069e-05
17 uio_oe[6] *470:21 1.95685e-05
18 uio_out[2] *470:54 0
19 *1174:B *1188:B 0.000187743
20 *1174:B *470:48 6.16531e-05
21 *1341:A1 *470:21 1.13579e-05
22 *1438:D *470:31 3.58088e-05
23 *24:12 *1191:A 6.6978e-05
24 *30:12 *470:54 0
25 *35:14 *1188:B 0.000100061
26 *176:14 *1337:A1 3.16792e-05
27 *256:10 *470:31 6.842e-05
28 *262:8 *470:54 0.000106747
29 *264:10 *1191:A 4.95614e-05
30 *264:10 *470:21 0.000107216
31 *393:10 *1337:A1 0.000203622
32 *393:10 *470:21 0.000124581
33 *457:172 *1191:A 0.00018282
34 *457:172 *470:31 0.000230823
35 *457:188 *470:31 0.000227473
36 *461:54 *1188:B 0
37 *461:73 *470:48 0.00158119
38 *461:81 *470:54 0
39 *469:14 *470:31 0.000137368
*RES
1 *1423:Q *470:6 38 
2 *470:6 *1337:A1 42.4329 
3 *470:6 *470:21 4.01857 
4 *470:21 *470:31 43.6507 
5 *470:31 *1188:B 41.7079 
6 *470:31 *470:48 35.2586 
7 *470:48 *470:54 32.2579 
8 *470:54 *1186:B 23 
9 *470:21 *1191:A 41.3971 
*END

*D_NET *471 0.0257431
*CONN
*I *1186:A I *D sky130_fd_sc_hd__nor2_2
*I *1184:A I *D sky130_fd_sc_hd__nor2_2
*I *1189:A I *D sky130_fd_sc_hd__xnor2_2
*I *1328:A0 I *D sky130_fd_sc_hd__mux2_1
*I *1425:Q O *D sky130_fd_sc_hd__dfrtp_2
*CAP
1 *1186:A 0.000342399
2 *1184:A 0
3 *1189:A 0
4 *1328:A0 0.000382236
5 *1425:Q 5.6655e-05
6 *471:66 0.000675105
7 *471:52 0.00290591
8 *471:38 0.00274164
9 *471:34 0.00102909
10 *471:32 0.000982752
11 *471:21 0.000191511
12 *471:8 0.000508308
13 *1328:A0 *1328:A1 5.3304e-05
14 *1328:A0 *1328:S 4.67488e-05
15 *1328:A0 *1329:B1_N 0
16 *1328:A0 *572:31 9.50895e-05
17 *471:52 *1222:A2 0
18 *471:52 *556:66 0.00016124
19 *471:52 *584:70 0.000418957
20 *471:52 *598:8 0.000114092
21 *471:52 *612:54 0.00187788
22 *471:52 *617:73 0.00145944
23 *471:66 *1184:B 1.05441e-05
24 *471:66 *472:50 3.50309e-05
25 *471:66 *580:44 4.62843e-05
26 *1114:A3 *471:52 4.38753e-05
27 *1214:D *471:52 0.000123465
28 *1435:CLK *471:52 0.000157299
29 *1468:D *1186:A 4.9054e-06
30 *1553:A *471:52 0
31 *26:6 *471:8 9.41704e-05
32 *29:18 *1328:A0 0.000118174
33 *29:18 *471:8 1.05235e-05
34 *29:18 *471:21 0.000191157
35 *29:18 *471:32 2.46922e-05
36 *30:12 *1186:A 8.6058e-05
37 *45:12 *471:52 1.27321e-05
38 *80:10 *471:52 0
39 *109:10 *1328:A0 4.52437e-05
40 *172:8 *471:52 0.000271838
41 *179:66 *471:52 0.00116367
42 *200:145 *471:52 0.000211053
43 *256:18 *1328:A0 1.34181e-05
44 *256:18 *471:32 3.27254e-05
45 *256:18 *471:34 0.000595307
46 *257:30 *471:66 5.10636e-05
47 *258:10 *471:66 2.58484e-05
48 *262:12 *471:34 0.00351364
49 *318:14 *471:52 8.76222e-05
50 *394:20 *471:21 2.95125e-05
51 *394:20 *471:32 5.72749e-05
52 *419:26 *471:52 0
53 *429:26 *471:52 0
54 *457:8 *471:52 0.000424972
55 *457:66 *1328:A0 0.00025134
56 *457:75 *1328:A0 0.000215216
57 *457:172 *1328:A0 3.70187e-05
58 *457:172 *471:21 0.000127272
59 *458:22 *471:38 0
60 *458:22 *471:52 0
61 *460:34 *471:66 0.000471198
62 *461:73 *471:34 0.000259017
63 *461:81 *471:38 0.000208547
64 *461:81 *471:52 0.00106519
65 *470:48 *471:34 0.00158379
*RES
1 *1425:Q *471:8 39.0979 
2 *471:8 *1328:A0 46.41 
3 *471:8 *471:21 2.61 
4 *471:21 *1189:A 38 
5 *471:21 *471:32 17.61 
6 *471:32 *471:34 42.0707 
7 *471:34 *471:38 18.6664 
8 *471:38 *471:52 47.365 
9 *471:52 *471:66 41.6748 
10 *471:66 *1184:A 23 
11 *471:38 *1186:A 43.4479 
*END

*D_NET *472 0.0196247
*CONN
*I *1187:A I *D sky130_fd_sc_hd__xnor2_2
*I *1328:A1 I *D sky130_fd_sc_hd__mux2_1
*I *1184:B I *D sky130_fd_sc_hd__nor2_2
*I *1182:A I *D sky130_fd_sc_hd__nor2_2
*I *1426:Q O *D sky130_fd_sc_hd__dfrtp_2
*CAP
1 *1187:A 0
2 *1328:A1 0.000121896
3 *1184:B 2.75456e-05
4 *1182:A 0
5 *1426:Q 0.000379237
6 *472:66 0.000713947
7 *472:50 0.00282027
8 *472:28 0.0040608
9 *472:16 0.00279968
10 *472:10 0.00107499
11 *1328:A1 *572:31 5.61255e-06
12 *472:10 *1426:RESET_B 7.80291e-05
13 *472:16 *473:35 0
14 *472:16 *563:30 1.91026e-05
15 *472:28 *1259:A 0.000155832
16 *472:28 *495:14 0.000669283
17 *472:28 *503:50 0.000151798
18 *472:28 *571:56 0.000148936
19 *472:28 *575:49 0.000534964
20 *472:28 *628:30 3.00618e-05
21 *472:50 *580:44 3.41998e-06
22 *472:50 *591:29 0.000164619
23 *472:50 *612:54 0.000955703
24 *472:50 *623:60 0.00079156
25 *472:66 *474:70 0.000149743
26 *472:66 *506:31 1.32939e-05
27 *472:66 *614:28 0.000598806
28 *472:66 *631:67 0.000575544
29 *1088:A2 *472:66 5.14746e-06
30 *1088:B2 *472:66 2.64616e-05
31 *1175:B *472:16 7.3074e-05
32 *1181:B *472:16 6.65045e-05
33 *1328:A0 *1328:A1 5.3304e-05
34 *27:10 *472:10 8.19707e-05
35 *64:14 *472:50 0
36 *111:8 *472:10 0.000107641
37 *112:22 *472:10 0.000145784
38 *130:32 *472:28 0.000129634
39 *134:31 *472:50 2.70499e-05
40 *186:12 *472:66 9.84851e-05
41 *193:24 *472:50 0.000181433
42 *257:30 *472:50 1.73354e-05
43 *258:10 *1184:B 5.85486e-05
44 *258:10 *472:66 1.05441e-05
45 *258:18 *472:50 2.12347e-06
46 *258:74 *472:10 0
47 *259:40 *1328:A1 5.3304e-05
48 *259:40 *472:16 0.000476824
49 *259:40 *472:28 7.23805e-05
50 *261:12 *472:50 1.6244e-05
51 *262:18 *472:10 0.00011868
52 *262:18 *472:16 2.75733e-06
53 *284:64 *472:50 0.00012436
54 *284:82 *472:50 0.000357149
55 *463:33 *472:28 0.000227686
56 *471:66 *1184:B 1.05441e-05
57 *471:66 *472:50 3.50309e-05
*RES
1 *1426:Q *472:10 47.3836 
2 *472:10 *472:16 25.8336 
3 *472:16 *472:28 45.0768 
4 *472:28 *472:50 41.0401 
5 *472:50 *472:66 40.3928 
6 *472:66 *1182:A 23 
7 *472:50 *1184:B 38.8493 
8 *472:16 *1328:A1 24.5743 
9 *472:10 *1187:A 38 
*END

*D_NET *473 0.0190821
*CONN
*I *1185:A I *D sky130_fd_sc_hd__xnor2_2
*I *1180:A I *D sky130_fd_sc_hd__nor2_2
*I *1182:B I *D sky130_fd_sc_hd__nor2_2
*I *1338:A0 I *D sky130_fd_sc_hd__mux2_1
*I *1427:Q O *D sky130_fd_sc_hd__dfstp_2
*CAP
1 *1185:A 0
2 *1180:A 3.60173e-05
3 *1182:B 0
4 *1338:A0 0
5 *1427:Q 0.000202569
6 *473:83 0.000456814
7 *473:71 0.000841472
8 *473:65 0.00144858
9 *473:51 0.00194385
10 *473:35 0.00201822
11 *473:19 0.00129079
12 *473:12 0.000116481
13 *473:10 0.000202569
14 *1180:A *596:79 9.5877e-05
15 *473:10 *1427:SET_B 8.41115e-05
16 *473:10 *572:20 1.83667e-05
17 *473:35 *1183:A 2.26497e-05
18 *473:35 *488:8 5.74603e-05
19 *473:35 *488:22 0.00181469
20 *473:35 *563:30 4.26341e-05
21 *473:51 *1107:A 1.81615e-05
22 *473:51 *575:49 4.83435e-05
23 *473:65 *1009:A 1.44663e-05
24 *473:65 *602:94 0.000162734
25 *473:65 *624:59 0.000122047
26 *473:71 *1087:A2_N 7.97137e-05
27 *473:83 *1018:A 0
28 *473:83 *1087:A2_N 0.000201761
29 *473:83 *1087:B1 1.28035e-05
30 *473:83 *1088:B1 5.54806e-05
31 *473:83 *474:70 0
32 *473:83 *580:44 7.12426e-05
33 *473:83 *591:29 8.65329e-05
34 *473:83 *595:55 9.23705e-06
35 *473:83 *631:67 0.000217734
36 *1087:A1_N *473:71 3.18198e-05
37 *1087:A1_N *473:83 0.000176286
38 *1088:B2 *473:83 7.45306e-06
39 *1090:B2 *1180:A 5.3304e-05
40 *1179:B *473:19 0.000235723
41 *1240:A2 *473:65 0
42 *1259:B *473:35 8.30282e-05
43 *1420:CLK *1180:A 1.5769e-05
44 *1426:CLK *473:10 0
45 *1437:CLK *473:51 5.56356e-05
46 *1437:D *473:51 6.79616e-05
47 *23:12 *473:35 2.24814e-05
48 *29:8 *473:19 0.00016279
49 *29:8 *473:35 0
50 *29:18 *473:19 0.000173664
51 *29:18 *473:35 0.000566278
52 *69:10 *473:65 0.000150509
53 *110:10 *473:35 0.000110913
54 *112:10 *473:35 0.000238356
55 *112:22 *473:10 7.88926e-05
56 *116:8 *473:35 3.44147e-05
57 *124:12 *473:65 0.000412126
58 *124:12 *473:71 0.000333233
59 *144:26 *473:35 0.00187044
60 *173:66 *473:51 4.60157e-05
61 *186:18 *473:83 0
62 *260:12 *473:83 0.000192511
63 *260:24 *473:35 1.25293e-05
64 *262:18 *473:35 0.000152633
65 *268:8 *473:65 5.80693e-05
66 *278:20 *473:65 7.52747e-05
67 *279:10 *473:65 1.41324e-05
68 *279:10 *473:71 0.000151382
69 *290:28 *473:65 0.000136871
70 *300:16 *473:51 0.000303898
71 *300:16 *473:65 0
72 *318:22 *473:51 0.000711015
73 *318:22 *473:65 0
74 *330:22 *473:65 2.17681e-05
75 *457:79 *473:35 4.21281e-05
76 *457:85 *473:19 5.67058e-05
77 *457:85 *473:35 0.000263317
78 *459:35 *473:51 0.000137651
79 *463:14 *473:51 3.16665e-05
80 *472:16 *473:35 0
*RES
1 *1427:Q *473:10 41.8321 
2 *473:10 *473:12 15 
3 *473:12 *1338:A0 23 
4 *473:12 *473:19 5.38571 
5 *473:19 *473:35 44.0076 
6 *473:35 *473:51 42.7304 
7 *473:51 *473:65 49.2181 
8 *473:65 *473:71 7.07393 
9 *473:71 *473:83 37.6672 
10 *473:83 *1182:B 23 
11 *473:71 *1180:A 39.0979 
12 *473:19 *1185:A 23 
*END

*D_NET *474 0.0220577
*CONN
*I *1338:A1 I *D sky130_fd_sc_hd__mux2_1
*I *1178:B I *D sky130_fd_sc_hd__nor2_2
*I *1180:B I *D sky130_fd_sc_hd__nor2_2
*I *1183:A I *D sky130_fd_sc_hd__xnor2_2
*I *1429:Q O *D sky130_fd_sc_hd__dfrtp_2
*CAP
1 *1338:A1 0.000154448
2 *1178:B 0
3 *1180:B 5.19419e-05
4 *1183:A 2.82839e-05
5 *1429:Q 8.34742e-05
6 *474:70 0.000690632
7 *474:43 0.000779822
8 *474:39 0.00356575
9 *474:18 0.00417319
10 *474:8 0.000854327
11 *1180:B *1072:A 5.73288e-05
12 *1180:B *561:35 0.000143535
13 *1180:B *596:79 5.63426e-05
14 *1183:A *563:30 4.06172e-06
15 *1338:A1 *1427:SET_B 3.2128e-05
16 *1338:A1 *572:10 3.3746e-05
17 *1338:A1 *572:20 0.00029043
18 *1338:A1 *598:96 2.68021e-05
19 *474:8 *572:14 5.3304e-05
20 *474:8 *572:31 5.50106e-05
21 *474:18 *495:56 0.000150755
22 *474:18 *563:42 0.000912752
23 *474:18 *572:20 3.47781e-05
24 *474:18 *574:31 6.41487e-05
25 *474:18 *627:22 0.00054023
26 *474:39 *488:22 2.87444e-05
27 *474:39 *498:29 0.000132345
28 *474:39 *574:31 7.35164e-05
29 *474:39 *627:22 0.000220501
30 *474:39 *630:84 0.000101724
31 *474:43 *561:35 0.000129522
32 *474:43 *596:79 4.75206e-05
33 *474:70 *506:31 0.000479323
34 *474:70 *614:36 0
35 *474:70 *630:84 0
36 uio_out[3] *474:39 0
37 *1087:B2 *474:70 1.03876e-05
38 *1088:B2 *474:70 0.000229374
39 *1176:B *474:70 0
40 *1223:B *474:39 6.86505e-05
41 *1236:B *474:39 0.000275724
42 *33:8 *474:39 0.000331016
43 *46:30 *474:39 2.46922e-05
44 *122:8 *474:70 0
45 *133:19 *474:70 0
46 *141:92 *474:39 0.000168982
47 *144:10 *474:39 4.75763e-05
48 *144:26 *474:39 0
49 *173:28 *474:39 0.000124901
50 *173:47 *474:39 0.00082
51 *174:8 *474:43 6.17437e-06
52 *175:8 *474:39 1.74874e-06
53 *175:20 *474:39 6.03461e-05
54 *177:41 *474:39 0.000220249
55 *186:12 *474:70 2.93747e-05
56 *259:40 *474:39 0.000104657
57 *260:12 *474:70 0
58 *260:24 *474:39 0.00372449
59 *280:16 *474:39 1.09358e-05
60 *282:10 *474:39 0.000136614
61 *284:22 *474:39 0.000287511
62 *397:26 *474:39 0.00115149
63 *456:133 *474:39 0
64 *461:29 *474:18 0
65 *465:59 *474:39 0
66 *472:66 *474:70 0.000149743
67 *473:35 *1183:A 2.26497e-05
68 *473:83 *474:70 0
*RES
1 *1429:Q *474:8 39.0979 
2 *474:8 *474:18 12.3517 
3 *474:18 *1183:A 46.3211 
4 *474:18 *474:39 45.3005 
5 *474:39 *474:43 16.5743 
6 *474:43 *1180:B 25.0714 
7 *474:43 *474:70 43.4436 
8 *474:70 *1178:B 23 
9 *474:8 *1338:A1 42.0186 
*END

*D_NET *475 0.00575697
*CONN
*I *1150:A I *D sky130_fd_sc_hd__nand2_2
*I *1151:A I *D sky130_fd_sc_hd__nor2_2
*I *1141:A I *D sky130_fd_sc_hd__and2_2
*I *1142:A I *D sky130_fd_sc_hd__and3_2
*I *1020:C I *D sky130_fd_sc_hd__or3_2
*I *1021:A2 I *D sky130_fd_sc_hd__o21ai_2
*I *1457:Q O *D sky130_fd_sc_hd__dfstp_2
*CAP
1 *1150:A 0
2 *1151:A 0
3 *1141:A 0
4 *1142:A 0.000189796
5 *1020:C 0
6 *1021:A2 0.000184487
7 *1457:Q 0.000461422
8 *475:59 0.000420918
9 *475:53 0.000526021
10 *475:44 0.000114634
11 *475:10 0.000288774
12 *475:8 0.000745973
13 *1021:A2 *1039:C 0.000192664
14 *1021:A2 *613:72 0.000425108
15 *1021:A2 *614:74 8.76694e-05
16 *1142:A *1142:C 9.28078e-06
17 *1142:A *479:22 5.3304e-05
18 *475:10 *559:37 0
19 *475:10 *613:72 1.14452e-05
20 *475:53 *477:14 6.66869e-05
21 *475:53 *477:26 5.50106e-05
22 *475:59 *1151:B 0.000164391
23 *475:59 *1155:A 6.33511e-05
24 *475:59 *1348:A 2.77188e-05
25 *475:59 *477:8 1.40087e-05
26 *475:59 *477:57 0.000115121
27 *475:59 *537:10 1.02738e-05
28 *1150:B *475:53 0.000189044
29 *1150:B *475:59 0
30 *1458:CLK *1142:A 4.96168e-05
31 *1458:CLK *475:10 0.000138727
32 *48:10 *475:8 0.000470937
33 *48:10 *475:44 5.67058e-05
34 *48:10 *475:53 0.000347108
35 *236:10 *475:44 2.30292e-05
36 *236:10 *475:53 1.57571e-05
37 *237:39 *1142:A 5.3304e-05
38 *448:97 *1142:A 0.000184682
*RES
1 *1457:Q *475:8 45.2914 
2 *475:8 *475:10 2.25786 
3 *475:10 *1021:A2 43.7793 
4 *475:10 *1020:C 38 
5 *475:8 *1142:A 41.9357 
6 *1457:Q *475:44 23.6214 
7 *475:44 *1141:A 23 
8 *475:44 *475:53 4.93 
9 *475:53 *475:59 38.2443 
10 *475:59 *1151:A 23 
11 *475:53 *1150:A 23 
*END

*D_NET *476 0.00139793
*CONN
*I *1514:A I *D sky130_fd_sc_hd__clkdlybuf4s25_1
*I *1467:Q O *D sky130_fd_sc_hd__dfrtp_2
*CAP
1 *1514:A 6.59614e-05
2 *1467:Q 0.000401453
3 *476:10 0.000467414
4 *1514:A *560:8 0.00014196
5 *476:10 *479:34 7.98088e-05
6 *476:10 *560:23 9.28078e-06
7 *149:37 *1514:A 8.15006e-05
8 *156:37 *476:10 3.77963e-05
9 *238:6 *476:10 3.7122e-06
10 *238:17 *476:10 1.89178e-05
11 *448:69 *476:10 1.59094e-05
12 *448:75 *476:10 7.4218e-05
*RES
1 *1467:Q *476:10 44.2971 
2 *476:10 *1514:A 40.0714 
*END

*D_NET *477 0.00827324
*CONN
*I *1151:B I *D sky130_fd_sc_hd__nor2_2
*I *1142:B I *D sky130_fd_sc_hd__and3_2
*I *1141:B I *D sky130_fd_sc_hd__and2_2
*I *1038:A2 I *D sky130_fd_sc_hd__o21ai_2
*I *1039:B I *D sky130_fd_sc_hd__or3_2
*I *1458:Q O *D sky130_fd_sc_hd__dfstp_2
*CAP
1 *1151:B 0.000142003
2 *1142:B 0
3 *1141:B 0
4 *1038:A2 0.000455579
5 *1039:B 7.02967e-05
6 *1458:Q 0.000125275
7 *477:67 0.000943285
8 *477:57 0.00120766
9 *477:26 0.00127446
10 *477:14 0.000965696
11 *477:8 0.000464753
12 *1039:B *613:72 0
13 *1151:B *478:111 0.000347884
14 *477:26 *1458:SET_B 0
15 *477:26 *612:54 0
16 *477:57 *478:8 2.33476e-05
17 *477:57 *478:111 9.33215e-05
18 *477:67 *479:18 0.000159889
19 *477:67 *479:22 3.58084e-06
20 *1042:B1_N *1038:A2 0
21 *1150:B *477:14 0.000187349
22 *1150:B *477:26 3.41998e-06
23 *1459:CLK *477:67 0.000267425
24 *1578:addr[11] *477:26 0.000295343
25 *50:8 *477:26 6.10508e-05
26 *135:25 *1039:B 0
27 *145:6 *1038:A2 0.000180212
28 *145:17 *1038:A2 0.000258245
29 *145:23 *477:26 0
30 *146:23 *477:26 9.90862e-05
31 *148:6 *1038:A2 0.000109428
32 *236:10 *477:14 9.75779e-05
33 *236:10 *477:26 2.18506e-05
34 *475:53 *477:14 6.66869e-05
35 *475:53 *477:26 5.50106e-05
36 *475:59 *1151:B 0.000164391
37 *475:59 *477:8 1.40087e-05
38 *475:59 *477:57 0.000115121
*RES
1 *1458:Q *477:8 40.61 
2 *477:8 *477:14 19.93 
3 *477:14 *477:26 39.6337 
4 *477:26 *1039:B 39.0254 
5 *477:26 *1038:A2 46.0061 
6 *477:14 *1141:B 23 
7 *477:8 *477:57 3.31429 
8 *477:57 *477:67 29.1479 
9 *477:67 *1142:B 23 
10 *477:57 *1151:B 42.7229 
*END

*D_NET *478 0.0223321
*CONN
*I *1153:A I *D sky130_fd_sc_hd__nor2_2
*I *1142:C I *D sky130_fd_sc_hd__and3_2
*I *1043:A2 I *D sky130_fd_sc_hd__o21ai_2
*I *1044:B I *D sky130_fd_sc_hd__or3_2
*I *1352:A I *D sky130_fd_sc_hd__nand2_2
*I *1353:A I *D sky130_fd_sc_hd__or2_2
*I *1459:Q O *D sky130_fd_sc_hd__dfstp_2
*CAP
1 *1153:A 0
2 *1142:C 2.0512e-05
3 *1043:A2 0.000180702
4 *1044:B 0
5 *1352:A 2.52923e-05
6 *1353:A 0.000533619
7 *1459:Q 1.38655e-05
8 *478:111 0.00058008
9 *478:68 0.000453253
10 *478:58 0.00148983
11 *478:28 0.00233986
12 *478:16 0.00352607
13 *478:12 0.00162862
14 *478:8 0.00131281
15 *1043:A2 *482:20 6.56284e-05
16 *1043:A2 *560:43 5.01186e-05
17 *1353:A *1086:B 0.000130348
18 *1353:A *1095:A 0
19 *1353:A *516:72 0.00020322
20 *478:12 *1578:addr[1] 0.000442165
21 *478:12 *1578:addr[5] 0
22 *478:12 *624:75 0.000274476
23 *478:16 *1578:addr[1] 0.000426478
24 *478:16 *557:28 0.000296407
25 *478:16 *624:75 0.00028331
26 *478:28 *1123:B 0
27 *478:28 *1298:B 0.000272648
28 *478:28 *1467:RESET_B 0.000485456
29 *478:28 *1578:addr[1] 0.000808001
30 *478:28 *545:10 7.42748e-05
31 *478:28 *557:28 4.9684e-05
32 *478:28 *570:69 0.000140622
33 *478:28 *602:73 0.00201804
34 *478:28 *610:51 6.27046e-05
35 *478:28 *610:70 0
36 *478:58 *523:48 8.54984e-05
37 *478:68 *482:20 0.000142821
38 *478:68 *615:103 2.04854e-05
39 *478:111 *1348:A 0
40 *1121:A *1353:A 7.87243e-05
41 *1142:A *1142:C 9.28078e-06
42 *1151:B *478:111 0.000347884
43 *1153:B *478:111 0.000134655
44 *1296:A_N *1353:A 0.000141954
45 *1296:C *1353:A 0.000111547
46 *1354:A *478:111 5.50106e-05
47 *47:6 *1353:A 0.000131547
48 *47:6 *478:28 3.6883e-05
49 *55:12 *1043:A2 0
50 *149:8 *1043:A2 6.1789e-05
51 *151:27 *478:68 0.000309205
52 *153:10 *478:68 0
53 *180:32 *478:58 4.2684e-05
54 *214:18 *1353:A 2.93335e-05
55 *215:25 *1353:A 5.40876e-05
56 *217:10 *1353:A 0.00052371
57 *219:12 *478:28 0.000361321
58 *233:34 *478:28 2.05503e-05
59 *234:8 *478:28 0
60 *235:10 *478:28 3.14242e-05
61 *240:42 *478:68 0
62 *352:8 *1353:A 3.88766e-05
63 *352:8 *478:28 0.000137651
64 *446:22 *478:28 0.00111631
65 *448:97 *1142:C 4.15283e-06
66 *477:57 *478:8 2.33476e-05
67 *477:57 *478:111 9.33215e-05
*RES
1 *1459:Q *478:8 38.3211 
2 *478:8 *478:12 10.4603 
3 *478:12 *478:16 2.85787 
4 *478:16 *478:28 42.6961 
5 *478:28 *1353:A 39.4057 
6 *478:28 *1352:A 23.4971 
7 *478:16 *478:58 25.3832 
8 *478:58 *478:68 36.7632 
9 *478:68 *1044:B 38 
10 *478:58 *1043:A2 41.1175 
11 *478:12 *1142:C 46.3211 
12 *478:8 *478:111 27.6461 
13 *478:111 *1153:A 23 
*END

*D_NET *479 0.0128445
*CONN
*I *1348:A I *D sky130_fd_sc_hd__nand2_2
*I *1155:A I *D sky130_fd_sc_hd__nor2_2
*I *1143:A I *D sky130_fd_sc_hd__and2_2
*I *1049:B I *D sky130_fd_sc_hd__or3_2
*I *1047:A2 I *D sky130_fd_sc_hd__o21ai_2
*I *1349:A I *D sky130_fd_sc_hd__or2_2
*I *1460:Q O *D sky130_fd_sc_hd__dfrtp_2
*CAP
1 *1348:A 0.000232533
2 *1155:A 7.59572e-05
3 *1143:A 2.52923e-05
4 *1049:B 7.87846e-05
5 *1047:A2 0
6 *1349:A 0
7 *1460:Q 0
8 *479:84 0.000551396
9 *479:54 0.000711381
10 *479:44 0.000762398
11 *479:34 0.00118505
12 *479:22 0.00177066
13 *479:18 0.00112442
14 *479:4 0.000677214
15 *1049:B *1049:C 7.1459e-05
16 *1049:B *481:30 8.27285e-05
17 *1049:B *483:20 3.17681e-05
18 *1049:B *559:12 1.98354e-05
19 *1155:A *537:10 0.000135547
20 *1348:A *537:10 0.000469786
21 *479:18 *1459:SET_B 7.75829e-05
22 *479:18 *1566:A 2.01531e-05
23 *479:34 *1047:B1 0.000161701
24 *479:34 *1158:A1 5.3304e-05
25 *479:34 *1158:B1 5.50106e-05
26 *479:34 *480:10 0.000112604
27 *479:34 *481:20 5.53119e-05
28 *479:34 *523:38 0.000592806
29 *479:34 *612:54 0.000115989
30 *479:34 *614:74 0.00125079
31 *479:44 *481:30 2.93747e-05
32 *479:44 *559:33 0
33 *479:54 *483:20 0.000180098
34 *479:54 *615:84 0.000167941
35 *1059:A *479:54 8.1796e-05
36 *1059:B *479:54 8.24341e-05
37 *1142:A *479:22 5.3304e-05
38 *1150:B *479:18 9.54383e-05
39 *1153:B *479:18 6.08751e-05
40 *1312:B *479:44 2.64616e-05
41 *1312:B *479:54 0.000146237
42 *1459:CLK *479:22 8.82787e-05
43 *52:6 *479:84 3.84903e-05
44 *151:39 *479:54 9.91919e-06
45 *151:58 *479:44 0
46 *152:8 *479:54 1.19831e-05
47 *155:10 *479:54 0.00016124
48 *236:10 *479:18 9.90384e-05
49 *237:39 *479:22 0.000285017
50 *238:6 *479:22 2.80512e-05
51 *238:6 *479:34 6.07078e-05
52 *238:60 *479:84 9.84851e-05
53 *244:88 *479:18 6.16439e-05
54 *404:8 *1348:A 0.000141888
55 *448:75 *479:34 0
56 *475:59 *1155:A 6.33511e-05
57 *475:59 *1348:A 2.77188e-05
58 *476:10 *479:34 7.98088e-05
59 *477:67 *479:18 0.000159889
60 *477:67 *479:22 3.58084e-06
61 *478:111 *1348:A 0
*RES
1 *1460:Q *479:4 23 
2 *479:4 *479:18 40.1707 
3 *479:18 *479:22 10.6471 
4 *479:22 *479:34 40.8863 
5 *479:34 *479:44 16.1186 
6 *479:44 *479:54 43.3193 
7 *479:54 *1349:A 23 
8 *479:44 *1047:A2 23 
9 *479:34 *1049:B 39.9057 
10 *479:22 *1143:A 23.4971 
11 *479:4 *479:84 18.0036 
12 *479:84 *1155:A 39.9057 
13 *479:84 *1348:A 44.4836 
*END

*D_NET *480 0.00968413
*CONN
*I *1351:A I *D sky130_fd_sc_hd__xor2_2
*I *1157:A I *D sky130_fd_sc_hd__xor2_2
*I *1144:A I *D sky130_fd_sc_hd__and3_2
*I *1054:A2 I *D sky130_fd_sc_hd__o21a_2
*I *1055:A I *D sky130_fd_sc_hd__nor2_2
*I *1158:A1 I *D sky130_fd_sc_hd__a21oi_2
*I *1461:Q O *D sky130_fd_sc_hd__dfrtp_2
*CAP
1 *1351:A 0
2 *1157:A 2.52923e-05
3 *1144:A 0
4 *1054:A2 0
5 *1055:A 0
6 *1158:A1 3.75957e-05
7 *1461:Q 0
8 *480:87 0.000696654
9 *480:57 0.000312775
10 *480:45 0.00083149
11 *480:41 0.000909042
12 *480:27 0.00111813
13 *480:10 0.00110283
14 *480:4 0.00105937
15 *480:10 *1158:B1 1.12695e-05
16 *480:10 *481:20 0.000121642
17 *480:27 *1158:B1 9.28078e-06
18 *480:27 *481:14 1.80609e-05
19 *480:41 *1467:RESET_B 1.05658e-05
20 *480:41 *482:20 0.000130019
21 *480:45 *481:30 0.000111943
22 *480:45 *559:73 0.000139754
23 *480:45 *559:86 1.03955e-05
24 *480:57 *1054:B1 5.3304e-05
25 *480:57 *560:70 0.000109194
26 *480:57 *617:122 6.59009e-05
27 *480:87 *1350:B 5.93018e-05
28 *480:87 *1461:RESET_B 0
29 *480:87 *508:123 1.02562e-05
30 *480:87 *523:38 0.000815697
31 *480:87 *541:12 0
32 *1051:A *480:45 5.50106e-05
33 *1051:B *480:45 9.67842e-05
34 *1149:B *480:45 0.000143872
35 *1149:B *480:57 4.79641e-05
36 *1462:CLK *480:27 1.76557e-05
37 *53:10 *480:27 4.96717e-05
38 *55:12 *480:41 0
39 *156:18 *480:45 5.3304e-05
40 *156:37 *480:45 0.000273281
41 *159:10 *480:57 1.24376e-05
42 *238:6 *1158:A1 9.84794e-05
43 *238:50 *480:87 0.000139589
44 *248:8 *480:27 0.000114074
45 *405:20 *480:57 0.000177357
46 *406:12 *480:87 6.32688e-05
47 *448:60 *480:41 0.000188544
48 *448:75 *480:10 0.000158828
49 *448:75 *480:27 0
50 *448:75 *480:87 3.53115e-05
51 *448:84 *480:87 2.30292e-05
52 *479:34 *1158:A1 5.3304e-05
53 *479:34 *480:10 0.000112604
*RES
1 *1461:Q *480:4 23 
2 *480:4 *480:10 21.3386 
3 *480:10 *1158:A1 39.0979 
4 *480:10 *480:27 24.57 
5 *480:27 *480:41 37.2086 
6 *480:41 *480:45 11.4757 
7 *480:45 *480:57 36.2557 
8 *480:57 *1055:A 23 
9 *480:45 *1054:A2 23 
10 *480:41 *1144:A 23 
11 *480:27 *1157:A 23.4971 
12 *480:4 *480:87 44.7486 
13 *480:87 *1351:A 23 
*END

*D_NET *481 0.0161442
*CONN
*I *1350:A I *D sky130_fd_sc_hd__xor2_2
*I *1158:B1 I *D sky130_fd_sc_hd__a21oi_2
*I *1144:B I *D sky130_fd_sc_hd__and3_2
*I *1062:B I *D sky130_fd_sc_hd__or2_2
*I *1061:B I *D sky130_fd_sc_hd__nor2_2
*I *1309:A0 I *D sky130_fd_sc_hd__mux2_1
*I *1306:A1 I *D sky130_fd_sc_hd__a211o_2
*I *1462:Q O *D sky130_fd_sc_hd__dfstp_2
*CAP
1 *1350:A 0
2 *1158:B1 3.18929e-05
3 *1144:B 0
4 *1062:B 0
5 *1061:B 0
6 *1309:A0 0
7 *1306:A1 0
8 *1462:Q 0.000368577
9 *481:120 0.000308927
10 *481:93 0.000159032
11 *481:70 0.000452607
12 *481:62 0.000676525
13 *481:52 0.000790751
14 *481:38 0.0011404
15 *481:30 0.00162329
16 *481:20 0.00186619
17 *481:14 0.000993921
18 *481:6 0.000982098
19 *481:6 *1462:SET_B 2.21476e-05
20 *481:14 *1461:RESET_B 8.12437e-05
21 *481:20 *1461:RESET_B 3.8512e-05
22 *481:30 *1047:A1 7.53384e-06
23 *481:30 *559:12 8.04879e-05
24 *481:30 *560:43 2.81406e-06
25 *481:38 *523:48 5.00775e-05
26 *481:38 *577:43 7.93305e-05
27 *481:38 *614:74 6.98611e-05
28 *481:52 *517:70 0.000698406
29 *481:52 *577:43 3.65347e-05
30 *481:52 *610:43 2.79505e-05
31 *481:52 *614:74 0.000130547
32 *481:62 *589:35 5.3304e-05
33 *481:70 *558:127 0
34 *481:70 *589:35 5.29093e-05
35 *481:93 *558:10 2.29936e-05
36 *481:120 *1461:RESET_B 5.08953e-05
37 *481:120 *508:123 0.000346817
38 *1049:B *481:30 8.27285e-05
39 *1130:B1 *481:93 5.50106e-05
40 *1312:B *481:30 2.17486e-05
41 *1314:B1_N *481:52 2.75971e-05
42 *151:39 *481:30 4.2062e-05
43 *151:58 *481:30 0.000477634
44 *151:58 *481:38 7.71219e-06
45 *156:18 *481:30 5.50049e-05
46 *156:37 *481:20 0.000278634
47 *156:37 *481:30 0.000344324
48 *158:10 *481:38 0
49 *158:27 *481:38 0.000246827
50 *158:27 *481:52 0.000526927
51 *160:78 *481:93 5.67058e-05
52 *162:31 *481:93 2.29936e-05
53 *164:6 *481:62 1.41129e-05
54 *164:16 *481:62 2.02872e-05
55 *164:16 *481:70 0.000215048
56 *164:38 *481:52 0.000203902
57 *164:67 *481:52 0.000111856
58 *164:67 *481:62 1.32314e-05
59 *165:23 *481:93 8.34416e-05
60 *180:32 *481:38 0
61 *180:54 *481:38 7.89883e-05
62 *200:50 *481:70 7.56293e-06
63 *226:8 *481:93 0.000172974
64 *233:23 *481:70 5.81567e-05
65 *238:6 *1158:B1 5.3304e-05
66 *238:50 *481:120 0
67 *248:8 *481:14 0.000116314
68 *248:8 *481:120 0
69 *351:10 *481:70 2.85803e-05
70 *362:38 *481:70 7.88924e-05
71 *364:32 *481:70 4.2099e-05
72 *367:8 *481:70 0.000141027
73 *369:18 *481:52 3.19804e-05
74 *370:10 *481:52 0.000143655
75 *370:10 *481:62 0.000249554
76 *405:32 *481:120 0.000184775
77 *446:22 *481:52 2.11066e-05
78 *448:75 *481:20 0.000168985
79 *479:34 *1158:B1 5.50106e-05
80 *479:34 *481:20 5.53119e-05
81 *479:44 *481:30 2.93747e-05
82 *480:10 *1158:B1 1.12695e-05
83 *480:10 *481:20 0.000121642
84 *480:27 *1158:B1 9.28078e-06
85 *480:27 *481:14 1.80609e-05
86 *480:45 *481:30 0.000111943
*RES
1 *1462:Q *481:6 27.4329 
2 *481:6 *481:14 20.1061 
3 *481:14 *481:20 25.7818 
4 *481:20 *481:30 47.2136 
5 *481:30 *481:38 27.3192 
6 *481:38 *481:52 29.7788 
7 *481:52 *481:62 6.06929 
8 *481:62 *481:70 38.99 
9 *481:70 *1306:A1 23 
10 *481:62 *1309:A0 23 
11 *481:52 *1061:B 23 
12 *481:38 *481:93 27.1118 
13 *481:93 *1062:B 23 
14 *481:20 *1144:B 23 
15 *481:14 *1158:B1 38.9425 
16 *481:6 *481:120 36.8357 
17 *481:120 *1350:A 23 
*END

*D_NET *482 0.00594966
*CONN
*I *1103:B I *D sky130_fd_sc_hd__xor2_2
*I *1145:A I *D sky130_fd_sc_hd__and2_2
*I *1160:A I *D sky130_fd_sc_hd__nor2_2
*I *1463:Q O *D sky130_fd_sc_hd__dfrtp_2
*CAP
1 *1103:B 0.000267657
2 *1145:A 0.000138838
3 *1160:A 0
4 *1463:Q 0.000140593
5 *482:27 0.000504892
6 *482:20 0.00110376
7 *482:8 0.00134274
8 *1103:B *557:28 0
9 *482:8 *1463:RESET_B 7.51159e-05
10 *482:20 *523:38 0.000152976
11 *482:20 *559:33 0
12 *1043:A2 *482:20 6.56284e-05
13 *1050:B *482:20 0
14 *1159:A1 *1145:A 9.26859e-05
15 *1160:B *482:20 0.000179063
16 *55:12 *482:20 0
17 *97:12 *1103:B 0
18 *153:10 *482:20 0
19 *200:8 *1103:B 0
20 *200:14 *482:8 0.000116188
21 *239:25 *1103:B 5.58473e-05
22 *239:25 *482:20 0.000545539
23 *239:25 *482:27 0.000132749
24 *240:6 *1145:A 3.91866e-05
25 *244:56 *482:8 0.000228624
26 *249:8 *482:20 0.00018534
27 *405:32 *482:8 0.000100371
28 *413:8 *1103:B 0
29 *448:60 *482:20 0.000209025
30 *478:68 *482:20 0.000142821
31 *480:41 *482:20 0.000130019
*RES
1 *1463:Q *482:8 42.9093 
2 *482:8 *482:20 34.4093 
3 *482:20 *1160:A 23 
4 *482:8 *482:27 1.90571 
5 *482:27 *1145:A 40.5686 
6 *482:27 *1103:B 18.6664 
*END

*D_NET *483 0.00727402
*CONN
*I *1146:A I *D sky130_fd_sc_hd__nand2_2
*I *1164:A1 I *D sky130_fd_sc_hd__a21oi_2
*I *1099:B I *D sky130_fd_sc_hd__xor2_2
*I *1147:B I *D sky130_fd_sc_hd__and3_2
*I *1162:A I *D sky130_fd_sc_hd__or2_2
*I *1464:Q O *D sky130_fd_sc_hd__dfstp_2
*CAP
1 *1146:A 0
2 *1164:A1 0
3 *1099:B 0.000303872
4 *1147:B 0.000120164
5 *1162:A 0
6 *1464:Q 0.000325932
7 *483:68 0.000157673
8 *483:57 0.000331599
9 *483:45 0.00062256
10 *483:27 0.00058775
11 *483:20 0.000544625
12 *483:8 0.00116756
13 *1099:B *512:30 0.000158722
14 *483:20 *1047:B1 0
15 *483:20 *1049:C 0.000145714
16 *483:20 *559:8 0
17 *483:20 *602:67 8.82057e-05
18 *483:27 *602:67 7.13521e-05
19 *483:57 *1147:A 1.76557e-05
20 *483:57 *484:14 4.66047e-05
21 *483:57 *576:37 1.14452e-05
22 *483:68 *1347:A 0
23 *483:68 *587:16 0
24 *1049:B *483:20 3.17681e-05
25 *1146:B *1099:B 7.35832e-05
26 *1146:B *483:68 6.45972e-05
27 *1162:B *483:20 2.32101e-05
28 *1164:A2 *483:57 1.76557e-05
29 *1165:A2 *483:57 0.000187129
30 *1463:CLK *483:27 0
31 *57:12 *483:57 0.000356724
32 *151:39 *483:20 2.24973e-05
33 *162:6 *483:20 2.93845e-05
34 *162:10 *483:20 7.4416e-05
35 *197:111 *1099:B 7.75329e-06
36 *197:111 *483:45 6.84254e-05
37 *198:8 *483:68 0
38 *240:6 *1147:B 9.88574e-06
39 *240:17 *1099:B 4.06052e-05
40 *240:17 *483:27 4.7568e-05
41 *240:21 *483:20 0.000712344
42 *240:21 *483:27 0.000108149
43 *240:42 *483:20 2.18409e-05
44 *241:10 *483:57 0.000162818
45 *241:10 *483:68 4.76305e-05
46 *242:12 *1147:B 9.5877e-05
47 *250:8 *483:20 9.84794e-05
48 *253:10 *483:27 3.217e-05
49 *448:41 *483:8 5.79715e-05
50 *479:54 *483:20 0.000180098
*RES
1 *1464:Q *483:8 43.3857 
2 *483:8 *483:20 28.5575 
3 *483:20 *1162:A 23 
4 *483:8 *483:27 5.25107 
5 *483:27 *1147:B 39.5743 
6 *483:27 *1099:B 18.6664 
7 *1099:B *483:45 2.45464 
8 *483:45 *483:57 38.7621 
9 *483:57 *1164:A1 23 
10 *483:45 *483:68 33.3143 
11 *483:68 *1146:A 23 
*END

*D_NET *484 0.00226604
*CONN
*I *1100:B I *D sky130_fd_sc_hd__xnor2_2
*I *1101:B I *D sky130_fd_sc_hd__xor2_2
*I *1164:B1 I *D sky130_fd_sc_hd__a21oi_2
*I *1147:A I *D sky130_fd_sc_hd__and3_2
*I *1465:Q O *D sky130_fd_sc_hd__dfstp_2
*CAP
1 *1100:B 5.69576e-05
2 *1101:B 0.000171358
3 *1164:B1 0
4 *1147:A 0.000205537
5 *1465:Q 3.09722e-05
6 *484:14 0.000474983
7 *484:8 0.000440804
8 *484:6 8.79298e-05
9 *1101:B *576:26 6.16439e-05
10 *1101:B *576:37 0
11 *1101:B *606:10 0
12 *484:14 *1092:B 1.40087e-05
13 *484:14 *576:37 0
14 *1164:A2 *484:14 5.50049e-05
15 *1165:A2 *1147:A 6.9805e-05
16 *1165:A2 *484:14 5.67058e-05
17 *57:12 *1147:A 2.13733e-05
18 *198:8 *1101:B 0
19 *198:14 *1100:B 7.88926e-05
20 *198:14 *484:6 2.93747e-05
21 *242:12 *1147:A 0.000322544
22 *244:48 *1147:A 2.38876e-05
23 *446:22 *1101:B 0
24 *446:22 *484:14 0
25 *483:57 *1147:A 1.76557e-05
26 *483:57 *484:14 4.66047e-05
*RES
1 *1465:Q *484:6 23.6214 
2 *484:6 *484:8 15 
3 *484:8 *484:14 19.8886 
4 *484:14 *1147:A 28.655 
5 *484:14 *1164:B1 23 
6 *484:8 *1101:B 17.9621 
7 *484:6 *1100:B 24.5743 
*END

*D_NET *485 0.00299129
*CONN
*I *1092:B I *D sky130_fd_sc_hd__xor2_2
*I *1166:A I *D sky130_fd_sc_hd__nor2_2
*I *1148:A I *D sky130_fd_sc_hd__and2_2
*I *1466:Q O *D sky130_fd_sc_hd__dfrtp_2
*CAP
1 *1092:B 0.000278747
2 *1166:A 9.9074e-05
3 *1148:A 0.000273288
4 *1466:Q 2.84143e-05
5 *485:21 0.000502811
6 *485:8 0.000426691
7 *1148:A *560:70 6.91178e-05
8 *485:21 *1466:RESET_B 2.31116e-05
9 *1148:B *1148:A 0.000136743
10 *1164:A2 *1092:B 2.93747e-05
11 *57:12 *1092:B 0.000114856
12 *58:6 *485:8 9.67842e-05
13 *180:54 *1092:B 7.67847e-05
14 *180:54 *1148:A 0.000149541
15 *180:54 *485:21 0.000227399
16 *189:12 *1092:B 4.83893e-05
17 *197:26 *485:8 9.67842e-05
18 *200:14 *1166:A 1.41077e-05
19 *200:26 *1092:B 4.15526e-05
20 *200:26 *1148:A 1.58785e-05
21 *200:26 *485:21 9.45664e-05
22 *240:55 *1092:B 2.96937e-05
23 *240:55 *1166:A 7.53384e-06
24 *243:8 *1148:A 2.64616e-05
25 *446:22 *1092:B 6.95776e-05
26 *484:14 *1092:B 1.40087e-05
*RES
1 *1466:Q *485:8 39.0979 
2 *485:8 *1148:A 42.785 
3 *485:8 *485:21 3.31429 
4 *485:21 *1166:A 39.5743 
5 *485:21 *1092:B 21.2454 
*END

*D_NET *486 0.0124781
*CONN
*I *1284:A2 I *D sky130_fd_sc_hd__a21o_2
*I *1082:C I *D sky130_fd_sc_hd__and4b_2
*I *1421:D I *D sky130_fd_sc_hd__dfxtp_2
*I *1079:X O *D sky130_fd_sc_hd__a21o_2
*CAP
1 *1284:A2 0
2 *1082:C 0
3 *1421:D 0
4 *1079:X 2.04596e-05
5 *486:50 0.000173192
6 *486:37 0.000667664
7 *486:20 0.00255285
8 *486:10 0.00207883
9 *486:20 *514:49 3.32987e-05
10 *486:20 *611:35 0.00166642
11 *486:37 *1082:A_N 5.72267e-05
12 *486:37 *1302:B 6.79274e-05
13 *486:37 *1303:A1 0.000178517
14 *486:37 *487:14 0.000105183
15 *486:37 *514:49 9.21169e-06
16 *486:50 *1284:A1 0.000206487
17 *486:50 *1303:A1 1.56762e-05
18 *486:50 *555:17 9.28078e-06
19 *486:50 *555:32 0.000200133
20 uio_out[6] *486:10 1.02561e-05
21 *1391:A1 *486:20 4.87572e-05
22 *1391:A1 *486:37 8.88163e-05
23 *46:12 *486:37 6.82693e-05
24 *46:12 *486:50 0.000137651
25 *46:30 *486:20 0.00237315
26 *144:26 *486:20 0.000237019
27 *179:66 *486:20 0.000628417
28 *180:70 *486:50 0.000136743
29 *277:25 *486:20 0
30 *283:14 *486:20 0
31 *352:14 *486:37 0.000439375
32 *355:10 *486:20 4.79458e-06
33 *356:8 *486:20 0
34 *359:10 *486:50 2.02872e-05
35 *442:20 *486:20 8.08487e-05
36 *456:86 *486:20 0.000161316
*RES
1 *1079:X *486:10 46.3211 
2 *486:10 *486:20 33.4394 
3 *486:20 *1421:D 23 
4 *486:20 *486:37 12.9879 
5 *486:37 *1082:C 23 
6 *486:37 *486:50 35.0129 
7 *486:50 *1284:A2 23 
*END

*D_NET *487 0.00863673
*CONN
*I *1082:A_N I *D sky130_fd_sc_hd__and4b_2
*I *1498:A I *D sky130_fd_sc_hd__buf_2
*I *1421:Q O *D sky130_fd_sc_hd__dfxtp_2
*CAP
1 *1082:A_N 0.000314903
2 *1498:A 0.00150256
3 *1421:Q 0
4 *487:14 0.00271132
5 *487:4 0.00152366
6 *1082:A_N *1302:B 4.91626e-05
7 *487:14 *1383:A0 7.70737e-05
8 *487:14 *514:41 0
9 *487:14 *544:26 0.000131847
10 *1389:B1 *487:14 5.30406e-05
11 *1471:CLK *1498:A 7.1349e-05
12 *1471:D *1498:A 0.000404722
13 *1472:D *1498:A 0.000314618
14 *39:10 *1498:A 5.79559e-05
15 *46:12 *1082:A_N 3.7681e-05
16 *342:41 *1498:A 9.90205e-05
17 *342:41 *487:14 1.54983e-05
18 *356:8 *487:14 4.08537e-05
19 *361:8 *487:14 0.000161882
20 *426:6 *487:14 0.000308946
21 *429:10 *487:14 6.39948e-05
22 *432:26 *487:14 3.31723e-05
23 *456:148 *1498:A 0.000294145
24 *456:152 *1498:A 0.000206914
25 *458:16 *487:14 0
26 *486:37 *1082:A_N 5.72267e-05
27 *486:37 *487:14 0.000105183
*RES
1 *1421:Q *487:4 23 
2 *487:4 *487:14 49.8029 
3 *487:14 *1498:A 49.825 
4 *487:4 *1082:A_N 27.3293 
*END

*D_NET *488 0.00697954
*CONN
*I *1496:A I *D sky130_fd_sc_hd__buf_2
*I *1209:Y O *D sky130_fd_sc_hd__o31ai_2
*CAP
1 *1496:A 0
2 *1209:Y 0.000336971
3 *488:22 0.00106832
4 *488:8 0.00140529
5 *488:8 *1446:RESET_B 2.53675e-05
6 *488:8 *574:23 0
7 *488:8 *599:35 1.83564e-05
8 *488:8 *629:28 0.000232481
9 *488:22 *1107:A 0.000116559
10 *488:22 *573:47 0.000249053
11 *488:22 *573:62 7.78291e-06
12 *488:22 *627:22 0.000432656
13 *1173:A *488:22 0.000223698
14 *1259:B *488:8 0
15 *1331:A0 *488:22 0.000128446
16 *23:12 *488:22 0.000288806
17 *116:8 *488:8 0.00012019
18 *144:26 *488:22 2.24903e-05
19 *173:66 *488:22 2.97009e-05
20 *177:41 *488:22 0.000243647
21 *255:20 *488:22 7.82139e-05
22 *397:26 *488:22 3.89819e-05
23 *463:40 *488:22 1.1644e-05
24 *473:35 *488:8 5.74603e-05
25 *473:35 *488:22 0.00181469
26 *474:39 *488:22 2.87444e-05
*RES
1 *1209:Y *488:8 43.2511 
2 *488:8 *488:22 43.1419 
3 *488:22 *1496:A 23 
*END

*D_NET *489 0.00563641
*CONN
*I *1005:A I *D sky130_fd_sc_hd__inv_2
*I *1024:A I *D sky130_fd_sc_hd__and3_2
*I *1025:A1 I *D sky130_fd_sc_hd__a21oi_2
*I *1023:A I *D sky130_fd_sc_hd__xor2_2
*I *1439:Q O *D sky130_fd_sc_hd__dfrtp_2
*CAP
1 *1005:A 0.000423531
2 *1024:A 0.000240415
3 *1025:A1 0
4 *1023:A 0.000290746
5 *1439:Q 0.000443916
6 *489:43 0.000945822
7 *489:32 0.000315091
8 *489:28 0.000323961
9 *489:10 0.000443916
10 *1005:A *493:12 0.000175987
11 *1024:A *1011:A 9.65021e-05
12 *1024:A *1024:B 2.04034e-05
13 *489:10 *1439:RESET_B 1.94812e-05
14 *489:28 *491:36 0
15 *489:28 *597:65 0
16 *489:32 *492:26 5.3304e-05
17 *489:43 *492:26 0.000186925
18 *1579:clk *489:10 7.11269e-05
19 *61:10 *489:10 0.000127705
20 *61:10 *489:28 0.000160582
21 *128:20 *1005:A 1.75256e-05
22 *137:14 *489:43 5.3304e-05
23 *137:18 *489:43 0.000179473
24 *137:24 *1024:A 0.000151173
25 *137:33 *1005:A 0.000248391
26 *137:33 *1024:A 1.22803e-05
27 *139:10 *489:43 0.000183167
28 *321:18 *489:28 2.93335e-05
29 *322:24 *489:28 0.000395892
30 *449:46 *489:28 2.64616e-05
*RES
1 *1439:Q *489:10 45.1464 
2 *489:10 *1023:A 38 
3 *1023:A *489:28 44.4007 
4 *489:28 *489:32 15.6214 
5 *489:32 *1025:A1 23 
6 *489:32 *489:43 21.3593 
7 *489:43 *1024:A 44.0693 
8 *489:43 *1005:A 48.7921 
*END

*D_NET *490 0.006419
*CONN
*I *1202:A1_N I *D sky130_fd_sc_hd__o2bb2a_2
*I *1025:A2 I *D sky130_fd_sc_hd__a21oi_2
*I *1024:B I *D sky130_fd_sc_hd__and3_2
*I *1023:B I *D sky130_fd_sc_hd__xor2_2
*I *1440:Q O *D sky130_fd_sc_hd__dfrtp_2
*CAP
1 *1202:A1_N 0
2 *1025:A2 4.54552e-05
3 *1024:B 0.000545854
4 *1023:B 8.28893e-05
5 *1440:Q 0.000296012
6 *490:42 0.00109355
7 *490:26 0.000982934
8 *490:14 0.000418745
9 *490:10 0.000316955
10 *1023:B *629:22 0.000136486
11 *1024:B *1011:A 5.31298e-06
12 *1024:B *491:10 6.17437e-06
13 *1024:B *492:26 0.000126755
14 *1025:A2 *492:26 6.06834e-05
15 *490:10 *1269:B1_N 0.000180991
16 *490:14 *604:8 4.17548e-05
17 *490:26 *1440:RESET_B 9.05654e-05
18 *490:26 *491:6 7.62333e-05
19 *490:26 *604:8 0.000185718
20 *490:42 *1266:A 3.7122e-06
21 *490:42 *492:26 6.76269e-05
22 *490:42 *629:22 0.00014633
23 *1024:A *1024:B 2.04034e-05
24 *1266:B *490:42 5.61255e-06
25 *126:24 *490:14 5.41924e-05
26 *126:24 *490:26 0.000188038
27 *127:28 *490:42 4.6318e-06
28 *137:18 *1024:B 2.56967e-05
29 *138:8 *490:42 0.000270663
30 *138:22 *1023:B 0.000138727
31 *138:22 *490:42 0.000198693
32 *270:14 *490:26 2.02872e-05
33 *319:24 *490:10 0.000202035
34 *321:18 *1023:B 2.62559e-05
35 *321:18 *490:10 0.000229137
36 *449:44 *490:10 7.93359e-05
37 *449:46 *1023:B 2.33744e-05
38 *456:214 *490:26 2.11766e-05
*RES
1 *1440:Q *490:10 45.395 
2 *490:10 *490:14 15.6318 
3 *490:14 *490:26 22.6125 
4 *490:26 *1023:B 17.4546 
5 *490:26 *490:42 23.3479 
6 *490:42 *1024:B 30.685 
7 *490:42 *1025:A2 24.6157 
8 *490:14 *1202:A1_N 23 
*END

*D_NET *491 0.00336034
*CONN
*I *1025:B1 I *D sky130_fd_sc_hd__a21oi_2
*I *1024:C I *D sky130_fd_sc_hd__and3_2
*I *1011:A I *D sky130_fd_sc_hd__inv_2
*I *1441:Q O *D sky130_fd_sc_hd__dfrtp_2
*CAP
1 *1025:B1 0
2 *1024:C 0
3 *1011:A 0.000348053
4 *1441:Q 0.000297041
5 *491:36 0.000174307
6 *491:10 0.000725235
7 *491:6 0.000848529
8 *491:6 *1440:RESET_B 4.81382e-05
9 *491:36 *492:26 1.83327e-05
10 *491:36 *597:65 2.80201e-05
11 *1024:A *1011:A 9.65021e-05
12 *1024:B *1011:A 5.31298e-06
13 *1024:B *491:10 6.17437e-06
14 *1441:D *491:10 2.64616e-05
15 *1579:clk *491:36 2.70184e-05
16 *137:10 *491:10 3.22465e-05
17 *137:24 *1011:A 0.000226905
18 *138:8 *491:36 5.56279e-05
19 *323:12 *1011:A 9.77405e-05
20 *456:214 *491:6 0.000222467
21 *489:28 *491:36 0
22 *490:26 *491:6 7.62333e-05
*RES
1 *1441:Q *491:6 28.8621 
2 *491:6 *491:10 6.235 
3 *491:10 *1011:A 29.0279 
4 *491:10 *1024:C 23 
5 *491:6 *491:36 33.2314 
6 *491:36 *1025:B1 23 
*END

*D_NET *492 0.00969541
*CONN
*I *1028:A I *D sky130_fd_sc_hd__nor2_2
*I *1012:A I *D sky130_fd_sc_hd__inv_2
*I *1027:A I *D sky130_fd_sc_hd__and2_2
*I *1442:Q O *D sky130_fd_sc_hd__dfrtp_2
*CAP
1 *1028:A 0.000550035
2 *1012:A 2.52547e-05
3 *1027:A 0
4 *1442:Q 0.000126469
5 *492:50 0.00134286
6 *492:37 0.00162569
7 *492:26 0.000707341
8 *492:8 0.00164142
9 *492:8 *577:26 0.000135037
10 *492:26 *1442:RESET_B 0.000111276
11 *492:26 *626:28 3.38832e-05
12 *492:37 *1442:RESET_B 0.000160591
13 *492:37 *1445:RESET_B 0
14 *492:37 *495:14 7.77823e-05
15 *492:37 *495:56 0.00034572
16 *492:37 *597:42 0
17 *492:37 *626:28 0.000148093
18 *492:50 *1427:SET_B 6.9327e-05
19 *492:50 *1432:RESET_B 3.63453e-05
20 *492:50 *495:56 0
21 *492:50 *598:96 8.08508e-05
22 *1024:B *492:26 0.000126755
23 *1025:A2 *492:26 6.06834e-05
24 *1028:B *1028:A 3.44446e-05
25 *1177:A *1012:A 3.59884e-05
26 *1177:A *492:37 1.41077e-05
27 *1177:B *1012:A 2.47128e-05
28 *1266:B *492:26 0.000228221
29 *1427:CLK *1028:A 5.01469e-05
30 *1432:CLK *492:50 0
31 *64:30 *492:37 6.84987e-06
32 *112:22 *1028:A 0.000115524
33 *115:8 *492:50 0
34 *127:8 *1012:A 5.67058e-05
35 *127:8 *492:37 0.000172197
36 *127:28 *492:26 0.000214582
37 *127:28 *492:37 0.000325084
38 *137:14 *492:26 4.08664e-05
39 *137:18 *492:26 9.64943e-05
40 *138:8 *492:26 3.81154e-05
41 *140:8 *1028:A 1.16862e-05
42 *257:30 *492:37 0
43 *284:82 *492:26 2.24608e-05
44 *388:10 *492:37 7.88828e-05
45 *394:8 *492:50 0.000222113
46 *449:160 *492:37 0
47 *457:114 *492:50 0
48 *461:39 *492:50 0.000174617
49 *489:32 *492:26 5.3304e-05
50 *489:43 *492:26 0.000186925
51 *490:42 *492:26 6.76269e-05
52 *491:36 *492:26 1.83327e-05
*RES
1 *1442:Q *492:8 39.5743 
2 *492:8 *492:26 30.7429 
3 *492:26 *1027:A 23 
4 *492:8 *492:37 33.0421 
5 *492:37 *1012:A 24.0979 
6 *492:37 *492:50 45.2871 
7 *492:50 *1028:A 31.1407 
*END

*D_NET *493 0.0047377
*CONN
*I *1032:A1 I *D sky130_fd_sc_hd__a21oi_2
*I *1013:A I *D sky130_fd_sc_hd__inv_2
*I *1031:A I *D sky130_fd_sc_hd__and3_2
*I *1443:Q O *D sky130_fd_sc_hd__dfrtp_2
*CAP
1 *1032:A1 4.01156e-05
2 *1013:A 0.000205954
3 *1031:A 0.000101088
4 *1443:Q 0.000905158
5 *493:12 0.000697292
6 *493:6 0.00133552
7 *1032:A1 *1032:B1 0
8 *493:6 *1032:B1 0.000181794
9 *493:6 *1443:RESET_B 9.16355e-05
10 *1005:A *493:12 0.000175987
11 *1443:D *493:6 7.71199e-05
12 *128:10 *1013:A 3.7122e-06
13 *137:33 *1013:A 0.000284947
14 *137:33 *493:12 0.000559751
15 *311:34 *493:6 2.95905e-05
16 *323:22 *493:6 1.79538e-05
17 *323:22 *493:12 3.00792e-05
*RES
1 *1443:Q *493:6 34.5793 
2 *493:6 *493:12 24.715 
3 *493:12 *1031:A 39.5743 
4 *493:12 *1013:A 43.2407 
5 *493:6 *1032:A1 23.8493 
*END

*D_NET *494 0.00594829
*CONN
*I *1014:A I *D sky130_fd_sc_hd__inv_2
*I *1032:B1 I *D sky130_fd_sc_hd__a21oi_2
*I *1031:B I *D sky130_fd_sc_hd__and3_2
*I *1444:Q O *D sky130_fd_sc_hd__dfrtp_2
*CAP
1 *1014:A 8.25851e-05
2 *1032:B1 0.000434395
3 *1031:B 0
4 *1444:Q 0
5 *494:48 0.000982245
6 *494:25 0.00142142
7 *494:16 0.000367949
8 *494:4 0.000455316
9 *494:48 *495:8 0.000140259
10 *638:DIODE *494:16 3.42398e-05
11 *638:DIODE *494:25 2.812e-05
12 *1031:C *494:16 2.45549e-06
13 *1032:A1 *1032:B1 0
14 *1443:D *1032:B1 7.51453e-06
15 *1445:CLK *1032:B1 4.05638e-05
16 *1445:CLK *494:16 2.8661e-05
17 *1445:D *494:16 9.77405e-05
18 *63:8 *1032:B1 0
19 *65:10 *494:16 1.58805e-05
20 *127:12 *494:48 0.000358122
21 *129:8 *494:48 0
22 *131:23 *1014:A 6.99589e-05
23 *140:12 *494:16 5.08795e-05
24 *141:6 *494:16 5.56279e-05
25 *141:6 *494:48 0.000348562
26 *141:18 *494:48 2.85696e-05
27 *143:32 *1032:B1 4.80427e-05
28 *143:32 *494:48 0.000154995
29 *275:30 *494:48 7.28839e-05
30 *311:34 *1032:B1 3.61244e-05
31 *319:10 *494:48 8.20069e-05
32 *449:121 *1032:B1 0.000133951
33 *449:160 *1032:B1 0
34 *460:14 *494:48 7.177e-05
35 *460:34 *494:48 2.31116e-05
36 *461:18 *1014:A 2.64616e-05
37 *461:18 *494:48 4.98399e-06
38 *461:29 *494:48 6.11038e-05
39 *493:6 *1032:B1 0.000181794
*RES
1 *1444:Q *494:4 23 
2 *494:4 *494:16 36.2557 
3 *494:16 *1031:B 23 
4 *494:4 *494:25 16.0979 
5 *494:25 *1032:B1 46.6793 
6 *494:25 *494:48 49.575 
7 *494:48 *1014:A 39.5743 
*END

*D_NET *495 0.0200877
*CONN
*I *1015:A I *D sky130_fd_sc_hd__inv_2
*I *1035:A I *D sky130_fd_sc_hd__or2_2
*I *1034:A I *D sky130_fd_sc_hd__nand2_2
*I *1445:Q O *D sky130_fd_sc_hd__dfrtp_2
*CAP
1 *1015:A 0
2 *1035:A 0.000404931
3 *1034:A 0
4 *1445:Q 3.3586e-05
5 *495:56 0.00170037
6 *495:26 0.000616496
7 *495:14 0.00375941
8 *495:8 0.00447194
9 *1035:A *569:81 5.35571e-05
10 *495:14 *569:81 0.000451184
11 *495:14 *574:41 0.000346074
12 *495:14 *575:49 0.00019815
13 *495:26 *1237:A 8.44835e-05
14 *495:26 *498:16 5.50106e-05
15 *495:56 *1432:RESET_B 6.13742e-05
16 *495:56 *572:10 3.47781e-05
17 *495:56 *572:14 5.3304e-05
18 *495:56 *598:96 3.88739e-05
19 *1034:B *495:26 1.73564e-06
20 *1208:A3 *495:56 0
21 *1229:C *495:26 0.000107909
22 *1236:C_N *495:26 0.000407821
23 *1429:CLK *495:56 7.87147e-05
24 *113:12 *495:56 4.60905e-05
25 *124:12 *495:26 8.45427e-05
26 *130:12 *495:56 0
27 *130:32 *495:14 0.000790974
28 *137:33 *495:56 0.000401251
29 *141:6 *495:8 0.000140259
30 *141:18 *495:14 0.00246772
31 *141:92 *495:26 0.00014014
32 *143:32 *495:14 0.000399544
33 *144:26 *495:56 4.94879e-05
34 *175:20 *1035:A 2.33476e-05
35 *179:66 *1035:A 0.000138226
36 *179:66 *495:14 0.000238776
37 *257:30 *495:14 1.9545e-05
38 *257:30 *495:56 8.05332e-05
39 *275:30 *495:56 0
40 *277:25 *1035:A 7.07766e-05
41 *277:25 *495:14 0.000125308
42 *280:45 *495:26 0.000120907
43 *280:62 *495:26 0.000129118
44 *288:25 *495:26 0.000119885
45 *290:14 *495:26 5.43589e-05
46 *293:10 *1035:A 1.05658e-05
47 *330:10 *495:26 4.32048e-05
48 *461:18 *495:56 4.96747e-05
49 *461:29 *495:56 0
50 *472:28 *495:14 0.000669283
51 *474:18 *495:56 0.000150755
52 *492:37 *495:14 7.77823e-05
53 *492:37 *495:56 0.00034572
54 *492:50 *495:56 0
55 *494:48 *495:8 0.000140259
*RES
1 *1445:Q *495:8 39.5743 
2 *495:8 *495:14 18.355 
3 *495:14 *495:26 36.1018 
4 *495:26 *1034:A 23 
5 *495:14 *1035:A 47.4075 
6 *495:8 *495:56 43.2543 
7 *495:56 *1015:A 23 
*END

*D_NET *496 0.00480209
*CONN
*I *1016:A I *D sky130_fd_sc_hd__inv_2
*I *1037:A I *D sky130_fd_sc_hd__xnor2_2
*I *1446:Q O *D sky130_fd_sc_hd__dfrtp_2
*CAP
1 *1016:A 0
2 *1037:A 0.00105593
3 *1446:Q 2.37053e-05
4 *496:27 0.000507525
5 *496:6 0.00158716
6 *496:27 *571:25 0.000251885
7 *1209:A1 *496:27 0.000457967
8 *1434:CLK *496:27 0.000111909
9 *1446:D *1037:A 0.000101947
10 *129:8 *496:27 5.494e-05
11 *131:8 *496:27 0.000277113
12 *258:74 *496:27 5.83041e-05
13 *275:30 *1037:A 0.000175718
14 *275:30 *496:6 5.50106e-05
15 *276:16 *1037:A 8.2976e-05
16 *460:14 *496:27 0
*RES
1 *1446:Q *496:6 23.6214 
2 *496:6 *1037:A 37.9971 
3 *496:6 *496:27 42.1179 
4 *496:27 *1016:A 23 
*END

*D_NET *497 0.00282834
*CONN
*I *1008:A I *D sky130_fd_sc_hd__inv_2
*I *1097:B2 I *D sky130_fd_sc_hd__a22o_2
*I *1219:A I *D sky130_fd_sc_hd__or3b_2
*I *1447:Q O *D sky130_fd_sc_hd__dfxtp_2
*CAP
1 *1008:A 0
2 *1097:B2 0
3 *1219:A 4.00706e-05
4 *1447:Q 0.000147797
5 *497:44 0.000391065
6 *497:14 0.000139089
7 *497:10 0.000490083
8 *497:8 0.000147797
9 *1219:A *1097:A1 0.000140935
10 *497:8 *630:44 6.10551e-06
11 *497:14 *1097:A1 7.23282e-05
12 *497:44 *1097:A1 1.31263e-05
13 *497:44 *1110:A 6.99689e-05
14 *497:44 *621:72 3.69289e-05
15 *132:43 *497:8 0.000144515
16 *132:43 *497:14 1.46586e-05
17 *141:71 *1219:A 1.71761e-05
18 *141:71 *497:14 0.000225922
19 *141:71 *497:44 3.62721e-05
20 *194:24 *497:44 9.65021e-05
21 *207:14 *497:44 3.41998e-06
22 *278:43 *497:44 6.71221e-05
23 *278:53 *497:44 6.97863e-05
24 *284:68 *1219:A 9.65021e-05
25 *285:18 *497:44 8.42719e-05
26 *285:26 *497:44 5.3304e-05
27 *290:36 *497:44 0
28 *306:32 *497:8 0
29 *330:22 *497:14 2.09099e-05
30 *330:22 *497:44 3.7122e-06
31 *337:12 *497:8 0.000198967
32 *337:12 *497:44 0
*RES
1 *1447:Q *497:8 40.9621 
2 *497:8 *497:10 15 
3 *497:10 *497:14 3.02429 
4 *497:14 *1219:A 24.5743 
5 *497:14 *1097:B2 23 
6 *497:10 *497:44 38.3479 
7 *497:44 *1008:A 23 
*END

*D_NET *498 0.00214868
*CONN
*I *1223:A I *D sky130_fd_sc_hd__and3_2
*I *1224:B1 I *D sky130_fd_sc_hd__a21oi_2
*I *1007:A I *D sky130_fd_sc_hd__inv_2
*I *1448:Q O *D sky130_fd_sc_hd__dfxtp_2
*CAP
1 *1223:A 5.8947e-05
2 *1224:B1 0
3 *1007:A 0
4 *1448:Q 8.49661e-05
5 *498:29 0.000165142
6 *498:16 0.00039226
7 *498:6 0.000583422
8 *498:16 *569:81 2.33368e-05
9 *122:8 *498:16 8.10876e-05
10 *132:10 *498:6 2.13733e-05
11 *132:10 *498:16 4.44979e-05
12 *141:92 *498:16 2.18409e-05
13 *173:28 *498:29 0.000134586
14 *259:8 *498:16 6.61938e-05
15 *288:15 *1223:A 0.000116041
16 *288:15 *498:29 5.3304e-05
17 *290:14 *498:16 0.000114327
18 *474:39 *498:29 0.000132345
19 *495:26 *498:16 5.50106e-05
*RES
1 *1448:Q *498:6 24.0979 
2 *498:6 *498:16 36.0071 
3 *498:16 *1007:A 23 
4 *498:6 *498:29 32.5271 
5 *498:29 *1224:B1 23 
6 *498:29 *1223:A 24.595 
*END

*D_NET *499 0.00697229
*CONN
*I *1230:B I *D sky130_fd_sc_hd__nand2b_2
*I *1231:A I *D sky130_fd_sc_hd__xnor2_2
*I *1109:A I *D sky130_fd_sc_hd__or2_2
*I *1110:A I *D sky130_fd_sc_hd__nand2_2
*I *1449:Q O *D sky130_fd_sc_hd__dfxtp_2
*CAP
1 *1230:B 0.000166427
2 *1231:A 0
3 *1109:A 0.000725237
4 *1110:A 0.000142878
5 *1449:Q 0.000776404
6 *499:20 0.000990976
7 *499:14 0.000179186
8 *499:10 0.000999156
9 *1110:A *621:72 7.25611e-05
10 *1113:A1 *1109:A 3.8243e-05
11 *1113:B2 *1109:A 7.80291e-06
12 *1218:B *1110:A 3.47776e-05
13 *1218:B *499:20 2.2119e-05
14 *1279:A *1110:A 0.000117075
15 *1279:A *499:20 4.7803e-05
16 *205:10 *1109:A 7.39993e-05
17 *208:8 *1109:A 0.000307349
18 *210:12 *1109:A 3.58084e-06
19 *210:12 *499:14 2.4754e-05
20 *210:12 *499:20 8.56245e-05
21 *210:24 *1230:B 4.57037e-05
22 *210:24 *499:10 6.16439e-05
23 *278:12 *499:10 3.44001e-05
24 *278:43 *1110:A 8.27142e-05
25 *280:62 *1109:A 0.000271734
26 *280:62 *499:10 0.000552499
27 *280:62 *499:14 0.000166981
28 *280:62 *499:20 0.000225616
29 *293:20 *499:10 0.00021677
30 *294:16 *499:14 0.000136738
31 *294:22 *1230:B 2.44374e-05
32 *295:12 *1230:B 2.73782e-05
33 *298:8 *499:10 2.24973e-05
34 *449:242 *1230:B 0.000207113
35 *449:242 *499:10 1.01436e-05
36 *497:44 *1110:A 6.99689e-05
*RES
1 *1449:Q *499:10 48.5229 
2 *499:10 *499:14 17.0507 
3 *499:14 *499:20 18.3764 
4 *499:20 *1110:A 41.3764 
5 *499:20 *1109:A 48.1707 
6 *499:14 *1231:A 23 
7 *499:10 *1230:B 40.9621 
*END

*D_NET *500 0.0018942
*CONN
*I *1009:A I *D sky130_fd_sc_hd__inv_2
*I *1237:A I *D sky130_fd_sc_hd__or3b_2
*I *1450:Q O *D sky130_fd_sc_hd__dfxtp_2
*CAP
1 *1009:A 0.000156573
2 *1237:A 0.000162858
3 *1450:Q 0.000141989
4 *500:8 0.00046142
5 *1236:A *1009:A 2.64616e-05
6 *1236:C_N *1009:A 3.21414e-05
7 *1236:C_N *1237:A 2.33548e-05
8 *124:12 *1009:A 9.46434e-05
9 *124:12 *1237:A 0.000266499
10 *175:20 *1009:A 9.84794e-05
11 *283:36 *1237:A 9.84794e-05
12 *301:10 *1237:A 5.12254e-05
13 *302:12 *500:8 0.000181125
14 *456:103 *1009:A 0
15 *473:65 *1009:A 1.44663e-05
16 *495:26 *1237:A 8.44835e-05
*RES
1 *1450:Q *500:8 40.0507 
2 *500:8 *1237:A 42.7643 
3 *500:8 *1009:A 41.3557 
*END

*D_NET *501 0.00434225
*CONN
*I *1243:C_N I *D sky130_fd_sc_hd__nor3b_2
*I *1111:A I *D sky130_fd_sc_hd__nand2_2
*I *1245:B1_N I *D sky130_fd_sc_hd__o21ba_2
*I *1112:A I *D sky130_fd_sc_hd__or2_2
*I *1451:Q O *D sky130_fd_sc_hd__dfxtp_2
*CAP
1 *1243:C_N 0.000220702
2 *1111:A 0.000362943
3 *1245:B1_N 2.34481e-05
4 *1112:A 0.00034276
5 *1451:Q 2.97069e-05
6 *501:26 0.000630016
7 *501:15 0.000193695
8 *501:6 0.000496342
9 *1111:A *569:63 2.76611e-06
10 *1112:A *1112:B 0.000181125
11 *1112:A *1522:A 9.84851e-05
12 *1112:A *573:28 0.000553249
13 *1112:A *602:116 7.44257e-05
14 *1243:C_N *570:47 6.23499e-05
15 *501:15 *602:116 8.84338e-05
16 *501:26 *602:116 7.12002e-05
17 *1243:A *1243:C_N 0.000268975
18 *1243:B *1243:C_N 5.3304e-05
19 *1245:A2 *1111:A 3.15923e-05
20 *1245:A2 *1243:C_N 8.93979e-06
21 *1246:A2 *1243:C_N 2.02872e-05
22 *1279:A *1111:A 0
23 *1451:D *1112:A 1.64354e-05
24 *208:8 *1111:A 1.73186e-05
25 *209:10 *1112:A 5.25937e-05
26 *210:12 *1111:A 2.93431e-05
27 *280:62 *1111:A 5.8441e-05
28 *280:76 *1111:A 0
29 *280:76 *1243:C_N 0
30 *299:20 *1112:A 0.000147319
31 *308:10 *1243:C_N 0.000105995
32 *308:10 *501:26 0.000100061
*RES
1 *1451:Q *501:6 23.4971 
2 *501:6 *1112:A 31.7207 
3 *501:6 *501:15 2.05071 
4 *501:15 *1245:B1_N 23.4971 
5 *501:15 *501:26 16.5743 
6 *501:26 *1111:A 43.9657 
7 *501:26 *1243:C_N 43.4064 
*END

*D_NET *502 0.00578274
*CONN
*I *1107:A I *D sky130_fd_sc_hd__nand2_2
*I *1106:A I *D sky130_fd_sc_hd__or2_2
*I *1249:B1 I *D sky130_fd_sc_hd__a21oi_2
*I *1250:A I *D sky130_fd_sc_hd__and3_2
*I *1452:Q O *D sky130_fd_sc_hd__dfxtp_2
*CAP
1 *1107:A 0.000369345
2 *1106:A 0
3 *1249:B1 0
4 *1250:A 0.00010032
5 *1452:Q 0
6 *502:34 0.000757818
7 *502:10 0.000502968
8 *502:4 0.000791121
9 *1250:A *562:51 0.000178357
10 *502:10 *562:51 0.000413946
11 *502:10 *567:37 0.000136743
12 *502:34 *567:37 0.000381751
13 *502:34 *570:47 0.00030373
14 *502:34 *575:49 9.0111e-05
15 *72:16 *502:10 4.59426e-05
16 *173:66 *1107:A 2.01379e-05
17 *204:24 *1107:A 3.04913e-05
18 *204:24 *502:34 0.000351786
19 *310:10 *502:34 0.000105268
20 *310:14 *502:34 4.5051e-05
21 *314:39 *1250:A 0.000180448
22 *314:39 *502:10 0.000347793
23 *315:10 *502:10 5.67058e-05
24 *315:10 *502:34 0.000138444
25 *388:10 *1107:A 0.00017208
26 *389:10 *1107:A 0.000127659
27 *463:40 *1107:A 0
28 *473:51 *1107:A 1.81615e-05
29 *488:22 *1107:A 0.000116559
*RES
1 *1452:Q *502:4 23 
2 *502:4 *502:10 22.7057 
3 *502:10 *1250:A 40.61 
4 *502:10 *1249:B1 38 
5 *502:4 *502:34 26.0821 
6 *502:34 *1106:A 38 
7 *502:34 *1107:A 43.7793 
*END

*D_NET *503 0.0150246
*CONN
*I *1259:A I *D sky130_fd_sc_hd__or2_2
*I *1258:A I *D sky130_fd_sc_hd__nand2_2
*I *1105:A I *D sky130_fd_sc_hd__nand2_2
*I *1104:A I *D sky130_fd_sc_hd__or2_2
*I *1453:Q O *D sky130_fd_sc_hd__dfxtp_2
*CAP
1 *1259:A 0.000454388
2 *1258:A 0.000393483
3 *1105:A 0
4 *1104:A 0
5 *1453:Q 0.000222172
6 *503:50 0.00181238
7 *503:24 0.00055987
8 *503:10 0.00127789
9 *503:6 0.0019047
10 *1258:A *563:8 1.24376e-05
11 *1258:A *571:25 5.3304e-05
12 *1259:A *1431:RESET_B 9.67842e-05
13 *1259:A *1434:RESET_B 3.62181e-05
14 *503:10 *599:49 2.22614e-05
15 *503:24 *1089:A 1.56621e-05
16 *503:24 *580:34 0.000803295
17 *503:24 *591:29 0.0012806
18 *503:50 *569:26 2.05503e-05
19 *503:50 *571:56 2.4982e-06
20 *1175:A *1258:A 0.000539511
21 *1254:C *503:50 7.07833e-06
22 *1258:B *1258:A 0.000644768
23 *125:24 *503:24 6.56284e-05
24 *130:32 *503:50 5.92738e-07
25 *130:40 *503:50 6.52067e-05
26 *134:10 *503:10 0.000113522
27 *134:10 *503:24 3.39192e-05
28 *134:31 *503:10 0.00042357
29 *141:18 *503:50 0.000333068
30 *143:32 *503:50 0.000334183
31 *179:14 *503:50 1.418e-05
32 *186:12 *503:24 5.67058e-05
33 *193:8 *503:24 1.9405e-05
34 *201:14 *503:24 6.56284e-05
35 *202:12 *503:10 6.11123e-05
36 *202:12 *503:24 4.77164e-06
37 *202:22 *503:10 0
38 *202:22 *503:50 2.90821e-05
39 *256:24 *1259:A 9.67842e-05
40 *257:30 *503:24 0.00049822
41 *259:24 *503:50 0.000309608
42 *259:40 *1259:A 4.98399e-06
43 *275:14 *503:50 2.05503e-05
44 *310:60 *503:50 0.000206699
45 *311:10 *503:50 0.000126993
46 *311:16 *503:6 0.000111933
47 *311:16 *503:50 5.12254e-05
48 *311:34 *503:6 2.93845e-05
49 *319:8 *1258:A 5.3304e-05
50 *320:12 *1259:A 0.000536358
51 *320:12 *503:50 0.000510586
52 *322:10 *503:10 2.95305e-05
53 *325:28 *503:10 5.26113e-05
54 *334:8 *503:50 0.000141216
55 *338:14 *503:24 5.50049e-05
56 *388:10 *1258:A 9.15444e-05
57 *394:20 *1259:A 0
58 *463:14 *1258:A 1.00493e-05
59 *472:28 *1259:A 0.000155832
60 *472:28 *503:50 0.000151798
*RES
1 *1453:Q *503:6 26.0036 
2 *503:6 *503:10 25.3571 
3 *503:10 *503:24 37.8931 
4 *503:24 *1104:A 23 
5 *503:10 *1105:A 38 
6 *503:6 *503:50 47.8349 
7 *503:50 *1258:A 49.7657 
8 *503:50 *1259:A 48.0464 
*END

*D_NET *504 0.00646869
*CONN
*I *1265:A I *D sky130_fd_sc_hd__nor2_2
*I *1266:A I *D sky130_fd_sc_hd__nand2_2
*I *1089:A I *D sky130_fd_sc_hd__xor2_2
*I *1454:Q O *D sky130_fd_sc_hd__dfxtp_2
*CAP
1 *1265:A 0
2 *1266:A 5.4158e-05
3 *1089:A 0.000439122
4 *1454:Q 1.49804e-05
5 *504:35 0.000811152
6 *504:8 0.0012111
7 *1089:A *1089:B 0
8 *1089:A *564:45 7.48656e-05
9 *1089:A *584:46 7.88293e-05
10 *1089:A *630:44 0.000344682
11 *504:35 *642:DIODE 1.89587e-05
12 *504:35 *612:54 0.000885522
13 *504:35 *626:28 1.31002e-05
14 *504:35 *629:22 2.51564e-05
15 *504:35 *629:43 8.17923e-05
16 *504:35 *630:44 0.000150956
17 *1203:A1 *504:35 0.00012421
18 *1266:B *1266:A 0.000140927
19 *126:12 *504:35 0.000248191
20 *127:28 *504:35 4.62763e-05
21 *134:10 *1089:A 4.95487e-06
22 *134:31 *1089:A 1.02562e-05
23 *134:31 *504:35 2.12347e-05
24 *258:66 *504:8 5.50106e-05
25 *284:82 *504:35 0.000158711
26 *324:22 *504:35 0.000712344
27 *324:35 *504:35 0.00056375
28 *326:10 *1266:A 9.64943e-05
29 *326:28 *504:35 7.57281e-06
30 *456:214 *504:8 5.50106e-05
31 *490:42 *1266:A 3.7122e-06
32 *503:24 *1089:A 1.56621e-05
*RES
1 *1454:Q *504:8 38.6214 
2 *504:8 *1089:A 46.8243 
3 *504:8 *504:35 36.7305 
4 *504:35 *1266:A 24.5743 
5 *504:35 *1265:A 23 
*END

*D_NET *505 0.00660894
*CONN
*I *1097:A1 I *D sky130_fd_sc_hd__a22o_2
*I *1273:A I *D sky130_fd_sc_hd__or2_2
*I *1272:A I *D sky130_fd_sc_hd__nand2_2
*I *1096:A1 I *D sky130_fd_sc_hd__o22a_2
*I *1455:Q O *D sky130_fd_sc_hd__dfxtp_2
*CAP
1 *1097:A1 0.000322047
2 *1273:A 0
3 *1272:A 0
4 *1096:A1 0.000377076
5 *1455:Q 0.000237081
6 *505:38 0.000529608
7 *505:25 0.000337801
8 *505:10 0.000744397
9 *1096:A1 *1071:A 0.000136451
10 *1096:A1 *1096:B1 4.79544e-05
11 *1096:A1 *564:37 7.44161e-06
12 *1096:A1 *631:54 0.000100069
13 *505:38 *564:10 1.56665e-05
14 *505:38 *599:68 5.6478e-05
15 *1219:A *1097:A1 0.000140935
16 *1274:A *505:25 1.88944e-05
17 *1281:A *505:10 6.14523e-05
18 *1282:A1 *1096:A1 0.00026025
19 *1282:A2 *1096:A1 1.21972e-05
20 *125:38 *1096:A1 9.41704e-05
21 *141:49 *1097:A1 9.41704e-05
22 *173:10 *1096:A1 5.67058e-05
23 *258:44 *505:10 9.84794e-05
24 *284:68 *1097:A1 3.44001e-05
25 *284:82 *1097:A1 0.000257424
26 *284:82 *505:38 5.50106e-05
27 *307:10 *505:38 6.69637e-06
28 *330:22 *1097:A1 0.000707454
29 *330:38 *505:25 9.28078e-06
30 *330:38 *505:38 0.000275811
31 *331:8 *505:10 1.40183e-05
32 *331:8 *505:25 4.8035e-05
33 *332:8 *1097:A1 9.58714e-05
34 *332:8 *505:38 0.000223698
35 *339:8 *505:10 4.01034e-05
36 *340:10 *505:10 7.89883e-05
37 *340:10 *505:25 0.000175148
38 *340:10 *505:38 1.05441e-05
39 *456:212 *1096:A1 0.000146413
40 *456:214 *1096:A1 0.000595269
41 *497:14 *1097:A1 7.23282e-05
42 *497:44 *1097:A1 1.31263e-05
*RES
1 *1455:Q *505:10 41.7079 
2 *505:10 *1096:A1 49.2686 
3 *505:10 *505:25 2.61 
4 *505:25 *1272:A 38 
5 *505:25 *505:38 20.1371 
6 *505:38 *1273:A 23 
7 *505:38 *1097:A1 33.3364 
*END

*D_NET *506 0.00479933
*CONN
*I *1088:A1 I *D sky130_fd_sc_hd__o22a_2
*I *1010:A I *D sky130_fd_sc_hd__inv_2
*I *1456:Q O *D sky130_fd_sc_hd__dfxtp_2
*CAP
1 *1088:A1 0
2 *1010:A 0.000137447
3 *1456:Q 0.000159637
4 *506:31 0.000763639
5 *506:10 0.00106072
6 *1010:A *584:46 5.65148e-05
7 *506:10 *580:34 7.20154e-05
8 *506:10 *584:46 8.4047e-05
9 *506:10 *595:41 0.000140494
10 *506:31 *584:46 5.3304e-05
11 *1088:A2 *506:31 5.50106e-05
12 *1176:B *506:31 5.3304e-05
13 *1280:A *1010:A 0.000141215
14 *1280:A *506:31 2.96262e-05
15 *185:10 *506:31 0.000401899
16 *186:12 *506:31 0.000181579
17 *193:8 *1010:A 1.44895e-05
18 *193:8 *506:10 3.7473e-07
19 *258:18 *506:31 0.000314143
20 *261:12 *506:31 0.000311823
21 *338:14 *1010:A 0.00018611
22 *338:14 *506:31 8.93148e-05
23 *472:66 *506:31 1.32939e-05
24 *474:70 *506:31 0.000479323
*RES
1 *1456:Q *506:10 40.7757 
2 *506:10 *1010:A 41.2521 
3 *506:10 *506:31 34.865 
4 *506:31 *1088:A1 23 
*END

*D_NET *507 0.000667697
*CONN
*I *1420:GATE I *D sky130_fd_sc_hd__dlclkp_2
*I *1115:Y O *D sky130_fd_sc_hd__nor2_2
*CAP
1 *1420:GATE 0.000129163
2 *1115:Y 7.17808e-05
3 *507:8 0.000200944
4 *1420:GATE *561:35 0.000186051
5 *507:8 *596:55 5.62433e-06
6 *191:30 *507:8 3.87221e-06
7 *211:24 *507:8 7.0261e-05
*RES
1 *1115:Y *507:8 39.2014 
2 *507:8 *1420:GATE 40.0507 
*END

*D_NET *508 0.0348578
*CONN
*I *1411:A I *D sky130_fd_sc_hd__and2_2
*I *1414:A I *D sky130_fd_sc_hd__and2_2
*I *1407:A I *D sky130_fd_sc_hd__and2_2
*I *1557:A I *D sky130_fd_sc_hd__buf_1
*I *1377:C I *D sky130_fd_sc_hd__or3_2
*I *1415:A I *D sky130_fd_sc_hd__nor2_2
*I *1365:A1 I *D sky130_fd_sc_hd__a31o_2
*I *1412:A I *D sky130_fd_sc_hd__nor2_2
*I *1408:A I *D sky130_fd_sc_hd__nor2_2
*I *1476:Q O *D sky130_fd_sc_hd__dfxtp_2
*CAP
1 *1411:A 0
2 *1414:A 0
3 *1407:A 8.30713e-05
4 *1557:A 0
5 *1377:C 1.32679e-05
6 *1415:A 0
7 *1365:A1 0
8 *1412:A 0
9 *1408:A 0
10 *1476:Q 3.92716e-05
11 *508:155 0.00029077
12 *508:149 0.000393582
13 *508:136 0.00108785
14 *508:123 0.00154382
15 *508:109 0.00342728
16 *508:87 0.00235727
17 *508:61 0.000165744
18 *508:48 0.000576321
19 *508:40 0.0014439
20 *508:34 0.00241037
21 *508:28 0.00422542
22 *508:26 0.000356725
23 *508:18 0.0017006
24 *508:8 0.00253753
25 *1377:C *610:70 5.58873e-06
26 *1407:A *1411:B 0.000218952
27 *1407:A *515:8 2.70366e-05
28 *508:18 *1368:A 0.000482838
29 *508:18 *1393:B 5.41288e-05
30 *508:18 *509:10 1.01436e-05
31 *508:18 *544:20 0.000259622
32 *508:18 *606:49 0
33 *508:18 *606:58 0.000112271
34 *508:26 *551:61 4.73652e-05
35 *508:26 *553:16 0
36 *508:26 *555:32 4.45778e-05
37 *508:28 *553:16 0
38 *508:40 *557:71 0.00021677
39 *508:48 *1286:B1 5.38923e-05
40 *508:48 *514:49 4.21594e-06
41 *508:48 *557:71 0.000135037
42 *508:48 *596:85 0
43 *508:48 *596:100 0
44 *508:48 *611:25 5.09165e-05
45 *508:61 *1095:A 5.50106e-05
46 *508:87 *517:70 2.2154e-05
47 *508:87 *577:43 0.000291172
48 *508:87 *608:59 0.00174644
49 *508:87 *610:43 0
50 *508:109 *1285:B 0
51 *508:109 *514:35 0.00127347
52 *508:123 *511:37 8.08254e-05
53 *508:123 *514:33 0
54 *508:123 *515:26 0.000164777
55 *508:123 *516:30 0.000157602
56 *508:123 *517:40 0.000183157
57 *508:123 *541:12 0.000677344
58 *508:123 *547:42 4.97925e-05
59 *508:123 *550:48 7.57281e-06
60 *508:123 *606:138 0
61 *508:136 *1410:B 9.21347e-06
62 *508:136 *1411:B 3.70187e-05
63 *508:149 *1411:B 0.000140259
64 *508:155 *1411:B 0.000131427
65 *508:155 *517:10 1.83564e-05
66 *645:CLK *508:48 4.83479e-05
67 *1367:C1 *508:34 4.51431e-05
68 *1486:CLK *508:18 6.16283e-05
69 *1488:CLK *508:8 4.96717e-05
70 *3:15 *508:123 0
71 *5:15 *508:123 0
72 *11:15 *508:18 0.000334564
73 *12:15 *508:18 0
74 *77:10 *508:18 7.98243e-05
75 *77:10 *508:109 0.000103653
76 *84:10 *508:40 0
77 *86:8 *508:18 0
78 *95:6 *508:18 0.000189681
79 *101:8 *1407:A 0.000163361
80 *238:50 *508:123 7.46212e-05
81 *341:12 *508:26 7.71572e-05
82 *343:10 *508:48 0
83 *353:34 *508:123 2.26497e-05
84 *359:10 *1377:C 2.26497e-05
85 *369:18 *508:87 0.000273379
86 *370:10 *508:87 0
87 *378:8 *508:61 0.000349377
88 *382:8 *508:61 0.000343064
89 *398:34 *508:34 0.000117848
90 *401:14 *508:34 3.62219e-05
91 *401:14 *508:40 0.000109815
92 *402:8 *508:40 0.000233555
93 *412:12 *508:123 0.000221725
94 *414:10 *508:123 0.000264597
95 *417:16 *508:26 0.000302954
96 *417:16 *508:28 0.000270173
97 *417:16 *508:34 0.000806536
98 *420:24 *508:34 5.23831e-05
99 *420:24 *508:40 1.47563e-05
100 *423:10 *508:18 2.81406e-06
101 *423:46 *508:18 1.14762e-05
102 *425:12 *508:8 9.5877e-05
103 *429:26 *508:34 3.69807e-05
104 *432:26 *508:34 8.00882e-05
105 *442:10 *508:48 0
106 *443:8 *508:149 2.02872e-05
107 *444:10 *508:40 0.0001201
108 *444:18 *508:34 0
109 *447:173 *508:123 0
110 *456:56 *508:40 4.2062e-05
111 *480:87 *508:123 1.02562e-05
112 *481:120 *508:123 0.000346817
*RES
1 *1476:Q *508:8 39.0979 
2 *508:8 *508:18 39.7743 
3 *508:18 *508:26 24.2444 
4 *508:26 *508:28 0.528267 
5 *508:28 *508:34 13.0915 
6 *508:34 *508:40 26.4964 
7 *508:40 *508:48 38.0993 
8 *508:48 *1408:A 23 
9 *508:40 *508:61 35.3443 
10 *508:61 *1412:A 23 
11 *508:34 *1365:A1 38 
12 *508:28 *508:87 46.2233 
13 *508:87 *1415:A 23 
14 *508:26 *1377:C 46.3211 
15 *508:8 *508:109 37.8479 
16 *508:109 *508:123 49.5929 
17 *508:123 *1557:A 38 
18 *508:109 *508:136 31.9236 
19 *508:136 *1407:A 40.9621 
20 *508:136 *508:149 17.0507 
21 *508:149 *508:155 35.7793 
22 *508:155 *1414:A 23 
23 *508:149 *1411:A 23 
*END

*D_NET *509 0.00224008
*CONN
*I *1558:A I *D sky130_fd_sc_hd__buf_1
*I *1347:A I *D sky130_fd_sc_hd__xnor2_2
*I *1486:Q O *D sky130_fd_sc_hd__dfxtp_2
*CAP
1 *1558:A 4.05155e-05
2 *1347:A 0.000357598
3 *1486:Q 0.000340974
4 *509:10 0.000739087
5 *1347:A *537:28 0
6 *1347:A *576:14 3.22879e-05
7 *1347:A *587:16 0.000111273
8 *1347:A *606:36 0
9 *1558:A *516:40 9.84794e-05
10 *1558:A *529:8 6.17437e-06
11 *509:10 *606:49 0
12 *11:15 *1347:A 9.28078e-06
13 *11:15 *509:10 0.000132918
14 *88:8 *1347:A 0
15 *95:6 *509:10 0.000306338
16 *446:40 *1347:A 5.50106e-05
17 *483:68 *1347:A 0
18 *508:18 *509:10 1.01436e-05
*RES
1 *1486:Q *509:10 43.3857 
2 *509:10 *1347:A 44.4007 
3 *509:10 *1558:A 39.0979 
*END

*D_NET *510 0.00376041
*CONN
*I *1359:B I *D sky130_fd_sc_hd__or4_2
*I *1559:A I *D sky130_fd_sc_hd__buf_1
*I *1487:Q O *D sky130_fd_sc_hd__dfxtp_2
*CAP
1 *1359:B 4.99221e-05
2 *1559:A 0
3 *1487:Q 0.00011015
4 *510:18 0.000747531
5 *510:10 0.000907603
6 *510:10 *1359:D 1.01436e-05
7 *510:10 *514:33 7.39034e-05
8 *510:18 *1359:D 0.000109158
9 *510:18 *1400:B 0.000278537
10 *510:18 *512:10 5.00543e-05
11 *510:18 *513:12 2.93603e-05
12 *510:18 *515:26 0
13 *510:18 *516:40 0.000845039
14 *510:18 *529:8 5.3801e-05
15 *510:18 *542:8 9.26881e-05
16 *510:18 *554:14 0
17 *510:18 *606:103 0.000143874
18 *10:15 *510:18 0
19 *341:31 *510:18 0.000100139
20 *417:10 *510:18 0
21 *423:46 *510:18 5.19016e-05
22 *424:8 *510:18 0
23 *424:28 *510:10 5.3304e-05
24 *425:12 *1359:B 5.3304e-05
*RES
1 *1487:Q *510:10 39.8229 
2 *510:10 *510:18 33.6429 
3 *510:18 *1559:A 23 
4 *510:10 *1359:B 38.6214 
*END

*D_NET *511 0.00907068
*CONN
*I *1359:A I *D sky130_fd_sc_hd__or4_2
*I *1560:A I *D sky130_fd_sc_hd__buf_1
*I *1488:Q O *D sky130_fd_sc_hd__dfxtp_2
*CAP
1 *1359:A 0
2 *1560:A 0
3 *1488:Q 0.000127213
4 *511:37 0.000689834
5 *511:22 0.00184976
6 *511:10 0.00266681
7 *511:22 *514:35 0.000185046
8 *511:22 *531:8 0.000263068
9 *511:22 *534:8 0.000103427
10 *511:22 *546:50 0.000187129
11 *511:22 *547:42 0.000464861
12 *511:22 *550:16 0
13 *511:22 *610:70 2.11066e-05
14 *511:37 *515:26 0.000192817
15 *511:37 *547:42 0.000237007
16 *1487:CLK *511:10 0
17 *1556:A *511:22 0.000104555
18 *5:15 *511:37 3.94969e-05
19 *10:15 *511:10 6.3765e-05
20 *10:15 *511:22 0.000583301
21 *10:15 *511:37 0.000107467
22 *12:15 *511:22 0.00044164
23 *100:14 *511:37 9.5877e-05
24 *353:16 *511:22 0.000150242
25 *353:34 *511:22 0.000147778
26 *353:34 *511:37 9.28078e-06
27 *424:28 *511:22 0.000118422
28 *425:12 *511:37 7.15126e-05
29 *427:6 *511:22 6.84456e-05
30 *508:123 *511:37 8.08254e-05
*RES
1 *1488:Q *511:10 48.0818 
2 *511:10 *511:22 32.3345 
3 *511:22 *1560:A 23 
4 *511:10 *511:37 28.7902 
5 *511:37 *1359:A 23 
*END

*D_NET *512 0.00447121
*CONN
*I *1361:A I *D sky130_fd_sc_hd__nor4_2
*I *1561:A I *D sky130_fd_sc_hd__buf_1
*I *1489:Q O *D sky130_fd_sc_hd__dfxtp_2
*CAP
1 *1361:A 0
2 *1561:A 0
3 *1489:Q 0.000151046
4 *512:30 0.000117883
5 *512:24 0.00123922
6 *512:10 0.00127238
7 *512:10 *515:26 0
8 *512:24 *1099:A 0.00014424
9 *512:24 *1357:A1_N 5.595e-05
10 *512:24 *1571:A 0
11 *512:24 *526:8 0.000135557
12 *512:24 *527:14 5.92059e-05
13 *512:24 *554:14 0.000250524
14 *512:24 *557:10 6.7177e-06
15 *512:30 *606:64 0
16 *1099:B *512:30 0.000158722
17 *1357:A2_N *512:24 7.77106e-05
18 *1358:C *512:24 9.16522e-05
19 *1511:A *512:24 0.000191157
20 *98:16 *512:10 5.50106e-05
21 *196:10 *512:24 0.000263127
22 *197:111 *512:24 9.67842e-05
23 *197:111 *512:30 1.58805e-05
24 *414:10 *512:24 0
25 *417:10 *512:10 3.83778e-05
26 *510:18 *512:10 5.00543e-05
*RES
1 *1489:Q *512:10 40.5271 
2 *512:10 *512:24 38.3657 
3 *512:24 *512:30 32.2579 
4 *512:30 *1561:A 23 
5 *512:10 *1361:A 38 
*END

*D_NET *513 0.00497761
*CONN
*I *1562:A I *D sky130_fd_sc_hd__buf_1
*I *1359:C I *D sky130_fd_sc_hd__or4_2
*I *1491:Q O *D sky130_fd_sc_hd__dfxtp_2
*CAP
1 *1562:A 0.000400319
2 *1359:C 0
3 *1491:Q 6.52883e-05
4 *513:29 0.00128658
5 *513:12 7.50818e-05
6 *513:6 0.00102663
7 *1562:A *514:70 0.000377207
8 *1562:A *533:8 0.000267173
9 *513:12 *1359:D 1.40183e-05
10 *513:29 *606:138 3.83778e-05
11 *1493:D *1562:A 5.67058e-05
12 *1493:D *513:29 1.56762e-05
13 *415:14 *513:29 0.000426324
14 *424:8 *513:12 0.000138145
15 *441:12 *1562:A 5.71978e-05
16 *442:20 *513:29 8.4047e-05
17 *447:94 *513:6 0.00010018
18 *447:94 *513:29 0.000206946
19 *447:109 *513:29 0.000312348
20 *510:18 *513:12 2.93603e-05
*RES
1 *1491:Q *513:6 24.0979 
2 *513:6 *513:12 31.9057 
3 *513:12 *1359:C 23 
4 *513:6 *513:29 42.9464 
5 *513:29 *1562:A 32.2179 
*END

*D_NET *514 0.0187099
*CONN
*I *1407:B I *D sky130_fd_sc_hd__and2_2
*I *1408:B I *D sky130_fd_sc_hd__nor2_2
*I *1359:D I *D sky130_fd_sc_hd__or4_2
*I *1492:Q O *D sky130_fd_sc_hd__dfxtp_2
*CAP
1 *1407:B 0
2 *1408:B 0
3 *1359:D 8.38721e-05
4 *1492:Q 0
5 *514:70 0.000511363
6 *514:49 0.00134071
7 *514:41 0.00214356
8 *514:35 0.00301435
9 *514:33 0.00249004
10 *514:18 0.000403266
11 *514:14 0.000870914
12 *514:4 0.00134142
13 *514:14 *1409:B1 6.17437e-06
14 *514:14 *528:14 0.00021039
15 *514:14 *606:138 5.09072e-05
16 *514:33 *515:26 0
17 *514:49 *596:100 0.00110819
18 *1375:B1 *514:41 0
19 *1391:A1 *514:49 8.66746e-06
20 *1562:A *514:70 0.000377207
21 *5:15 *514:33 0
22 *10:15 *514:33 0
23 *100:14 *514:14 9.1712e-05
24 *101:16 *514:14 4.95081e-05
25 *101:16 *514:70 0.0002494
26 *102:8 *514:70 2.76611e-06
27 *343:10 *514:49 9.20311e-06
28 *355:10 *514:41 0
29 *356:8 *514:41 3.83778e-05
30 *356:20 *514:41 7.76364e-06
31 *398:34 *514:49 2.71291e-05
32 *399:16 *514:49 6.31773e-05
33 *415:14 *514:14 7.43025e-06
34 *417:16 *514:41 1.56826e-05
35 *418:8 *514:41 0.00023369
36 *424:8 *1359:D 1.76527e-05
37 *424:8 *514:33 2.29192e-05
38 *425:12 *1359:D 4.50767e-06
39 *425:12 *514:14 0.000308039
40 *426:18 *514:41 4.35681e-06
41 *429:10 *514:41 0.000428836
42 *432:26 *514:41 1.72531e-05
43 *437:10 *514:41 0.000353431
44 *441:12 *514:70 0.000177197
45 *442:20 *514:14 0.000147744
46 *444:18 *514:70 0.000136486
47 *447:109 *514:14 0.000177604
48 *458:16 *514:41 0
49 *458:22 *514:35 0.00044458
50 *486:20 *514:49 3.32987e-05
51 *486:37 *514:49 9.21169e-06
52 *487:14 *514:41 0
53 *508:48 *514:49 4.21594e-06
54 *508:109 *514:35 0.00127347
55 *508:123 *514:33 0
56 *510:10 *1359:D 1.01436e-05
57 *510:10 *514:33 7.39034e-05
58 *510:18 *1359:D 0.000109158
59 *511:22 *514:35 0.000185046
60 *513:12 *1359:D 1.40183e-05
*RES
1 *1492:Q *514:4 23 
2 *514:4 *514:14 43.2571 
3 *514:14 *514:18 15.6214 
4 *514:18 *1359:D 39.7296 
5 *514:18 *514:33 19.3707 
6 *514:33 *514:35 43.9764 
7 *514:35 *514:41 45.6393 
8 *514:41 *514:49 48.9743 
9 *514:49 *1408:B 23 
10 *514:4 *514:70 41.4343 
11 *514:70 *1407:B 23 
*END

*D_NET *515 0.00490281
*CONN
*I *1410:A I *D sky130_fd_sc_hd__and2_2
*I *1361:B I *D sky130_fd_sc_hd__nor4_2
*I *1493:Q O *D sky130_fd_sc_hd__dfxtp_2
*CAP
1 *1410:A 0
2 *1361:B 3.7965e-05
3 *1493:Q 6.24767e-05
4 *515:26 0.00100906
5 *515:12 0.00104949
6 *515:8 0.000140868
7 *1361:B *516:30 9.84794e-05
8 *515:8 *1410:B 0.000166513
9 *515:26 *1413:B1 0.000314459
10 *515:26 *528:14 9.84851e-05
11 *515:26 *531:8 1.76557e-05
12 *515:26 *543:8 1.41129e-05
13 *515:26 *550:48 2.05503e-05
14 *515:26 *605:51 0.000140259
15 *1407:A *515:8 2.70366e-05
16 *1556:A *515:26 0.000193739
17 *96:10 *515:26 0.000523716
18 *100:14 *515:26 0.000183103
19 *101:8 *515:8 0.000113153
20 *353:34 *515:26 4.15283e-06
21 *414:10 *515:26 9.28078e-06
22 *417:10 *515:26 8.41618e-05
23 *423:46 *515:26 3.14377e-05
24 *424:8 *515:26 8.69451e-05
25 *443:8 *515:12 7.4416e-05
26 *443:8 *515:26 4.37033e-05
27 *508:123 *515:26 0.000164777
28 *510:18 *515:26 0
29 *511:37 *515:26 0.000192817
30 *512:10 *515:26 0
31 *514:33 *515:26 0
*RES
1 *1493:Q *515:8 40.2579 
2 *515:8 *515:12 16.5743 
3 *515:12 *515:26 40.3543 
4 *515:26 *1361:B 39.0979 
5 *515:12 *1410:A 23 
*END

*D_NET *516 0.0199949
*CONN
*I *1411:B I *D sky130_fd_sc_hd__and2_2
*I *1360:B I *D sky130_fd_sc_hd__or4_2
*I *1412:B I *D sky130_fd_sc_hd__nor2_2
*I *1494:Q O *D sky130_fd_sc_hd__dfxtp_2
*CAP
1 *1411:B 0.000398119
2 *1360:B 0
3 *1412:B 0
4 *1494:Q 0.000117391
5 *516:72 0.000647623
6 *516:58 0.00215861
7 *516:40 0.00316313
8 *516:30 0.00256711
9 *516:18 0.000914967
10 *516:16 0.000607128
11 *516:8 0.00112264
12 *1411:B *517:10 0
13 *1411:B *533:18 0.000280481
14 *516:8 *533:18 0.000222113
15 *516:30 *605:16 9.41704e-05
16 *516:30 *605:75 0.000168687
17 *516:30 *606:138 8.26569e-05
18 *516:40 *1364:C 4.82774e-05
19 *516:40 *1395:B 0.00014196
20 *516:40 *519:10 7.45617e-05
21 *516:40 *520:6 0.000267173
22 *516:40 *529:8 0.000125048
23 *516:58 *587:16 9.2049e-05
24 *516:58 *611:35 0.00036724
25 *516:72 *1095:A 9.62764e-05
26 *516:72 *558:87 0
27 *516:72 *635:29 0
28 *1121:A *516:72 9.28078e-06
29 *1299:A_N *516:58 0.000227208
30 *1299:C *516:58 0.00012245
31 *1353:A *516:72 0.00020322
32 *1361:B *516:30 9.84794e-05
33 *1361:D *516:30 9.84851e-05
34 *1407:A *1411:B 0.000218952
35 *1495:CLK *516:16 9.13962e-05
36 *1555:A *516:40 0
37 *1558:A *516:40 9.84794e-05
38 *47:6 *516:72 5.56279e-05
39 *99:8 *516:16 8.62783e-05
40 *101:8 *1411:B 1.88972e-05
41 *101:16 *516:30 0.000119447
42 *104:10 *516:16 4.88222e-05
43 *151:72 *516:58 0
44 *189:30 *516:58 0.00018418
45 *198:14 *516:58 0.000490193
46 *235:18 *516:58 1.83564e-05
47 *352:29 *516:58 3.65271e-05
48 *355:10 *516:58 0
49 *356:8 *516:58 0
50 *416:10 *516:16 8.4047e-05
51 *442:20 *516:58 0.00180091
52 *443:8 *1411:B 0.000228909
53 *444:10 *516:72 0.000223704
54 *447:18 *516:40 0.000240198
55 *447:173 *516:30 1.74874e-06
56 *447:188 *516:30 4.38834e-05
57 *458:16 *516:58 7.64232e-05
58 *508:123 *516:30 0.000157602
59 *508:136 *1411:B 3.70187e-05
60 *508:149 *1411:B 0.000140259
61 *508:155 *1411:B 0.000131427
62 *510:18 *516:40 0.000845039
*RES
1 *1494:Q *516:8 40.9621 
2 *516:8 *516:16 38.0164 
3 *516:16 *516:18 15 
4 *516:18 *516:30 45.6393 
5 *516:30 *516:40 43.2025 
6 *516:40 *516:58 48.421 
7 *516:58 *516:72 42.5943 
8 *516:72 *1412:B 23 
9 *516:18 *1360:B 23 
10 *516:8 *1411:B 48.4193 
*END

*D_NET *517 0.0190949
*CONN
*I *1414:B I *D sky130_fd_sc_hd__and2_2
*I *1360:A I *D sky130_fd_sc_hd__or4_2
*I *1415:B I *D sky130_fd_sc_hd__nor2_2
*I *1495:Q O *D sky130_fd_sc_hd__dfxtp_2
*CAP
1 *1414:B 0
2 *1360:A 0
3 *1415:B 0
4 *1495:Q 0.000205603
5 *517:70 0.00188911
6 *517:52 0.00392424
7 *517:40 0.00213169
8 *517:34 0.00105448
9 *517:22 0.00125287
10 *517:12 0.000294944
11 *517:10 0.000205603
12 *517:22 *1360:C 9.67842e-05
13 *517:22 *1416:B1 5.50106e-05
14 *517:22 *605:75 0.000112675
15 *517:34 *1360:C 0.000124051
16 *517:34 *1417:A 6.41506e-05
17 *517:34 *537:22 0.000137651
18 *517:34 *543:16 0
19 *517:40 *541:12 0.000180916
20 *517:52 *1394:B 0.000356724
21 *517:52 *576:26 7.4416e-05
22 *517:70 *1132:A2 7.06451e-05
23 *517:70 *555:17 0
24 *517:70 *560:109 0.000372793
25 *517:70 *607:49 0.000474911
26 *517:70 *610:43 0.000161609
27 *1411:B *517:10 0
28 *1416:A1 *517:22 0.000227507
29 *1416:A2 *517:22 3.2327e-05
30 *1418:CLK *517:52 0.000364608
31 *1480:CLK *517:34 0.000229658
32 *57:18 *517:70 7.33973e-05
33 *98:8 *517:34 0
34 *99:8 *517:34 0
35 *101:16 *517:22 0.000397602
36 *104:10 *517:10 3.06338e-05
37 *162:31 *517:70 6.10551e-06
38 *164:67 *517:70 5.85423e-05
39 *180:70 *517:70 0.000488455
40 *180:83 *517:70 0
41 *225:26 *517:70 7.45306e-06
42 *226:8 *517:70 0
43 *227:29 *517:70 0.000142698
44 *369:18 *517:70 0.000512861
45 *370:10 *517:70 0
46 *403:6 *517:52 0.00121996
47 *416:10 *517:34 0.000142418
48 *444:18 *517:34 5.407e-05
49 *446:40 *517:52 0.000851832
50 *447:158 *517:34 9.17998e-05
51 *448:17 *517:70 0
52 *481:52 *517:70 0.000698406
53 *508:87 *517:70 2.2154e-05
54 *508:123 *517:40 0.000183157
55 *508:155 *517:10 1.83564e-05
*RES
1 *1495:Q *517:10 41.3557 
2 *517:10 *517:12 15 
3 *517:12 *517:22 9.05214 
4 *517:22 *517:34 47.255 
5 *517:34 *517:40 32.61 
6 *517:40 *517:52 49.8829 
7 *517:52 *517:70 43.0144 
8 *517:70 *1415:B 38 
9 *517:22 *1360:A 23 
10 *517:12 *1414:B 23 
*END

*D_NET *518 0.00235889
*CONN
*I *1360:C I *D sky130_fd_sc_hd__or4_2
*I *1417:A I *D sky130_fd_sc_hd__and2_2
*I *1490:Q O *D sky130_fd_sc_hd__dfxtp_2
*CAP
1 *1360:C 0.000162899
2 *1417:A 0.000365445
3 *1490:Q 4.55529e-05
4 *518:8 0.000573896
5 *1360:C *605:75 0.000139352
6 *1417:A *533:18 0.000152446
7 *1494:D *1417:A 0.000182826
8 *1495:CLK *518:8 2.93747e-05
9 *101:16 *1360:C 2.32004e-05
10 *444:18 *1360:C 0.00026599
11 *444:18 *1417:A 0.000132918
12 *517:22 *1360:C 9.67842e-05
13 *517:34 *1360:C 0.000124051
14 *517:34 *1417:A 6.41506e-05
*RES
1 *1490:Q *518:8 38.6214 
2 *518:8 *1417:A 46.41 
3 *518:8 *1360:C 43.2407 
*END

*D_NET *519 0.00885454
*CONN
*I *1563:A I *D sky130_fd_sc_hd__buf_1
*I *1386:A1 I *D sky130_fd_sc_hd__o21bai_2
*I *1364:C I *D sky130_fd_sc_hd__nor3_2
*I *1477:Q O *D sky130_fd_sc_hd__dfxtp_2
*CAP
1 *1563:A 0.000317836
2 *1386:A1 5.56703e-05
3 *1364:C 0.000467499
4 *1477:Q 0.000449857
5 *519:37 0.00100437
6 *519:10 0.00169879
7 *519:8 0.00105028
8 *1364:C *1364:A 0
9 *1364:C *1364:B 2.43944e-05
10 *1364:C *520:6 2.54096e-05
11 *1364:C *545:59 2.64616e-05
12 *1563:A *552:8 4.08641e-05
13 *519:10 *520:19 0
14 *519:10 *545:59 0
15 *519:37 *1377:A 0.000511733
16 *519:37 *1377:B 0.000348911
17 *519:37 *544:20 0.000410542
18 *519:37 *552:59 2.07355e-05
19 *519:37 *553:16 8.70086e-05
20 *519:37 *555:32 5.98757e-05
21 *519:37 *555:51 4.24694e-06
22 *1374:A3 *1563:A 0
23 *1477:D *519:8 0.00012316
24 *1478:D *1364:C 6.64304e-05
25 *1555:A *1364:C 0
26 *341:12 *519:37 0.00038152
27 *341:31 *519:37 0.000279771
28 *361:18 *1386:A1 7.84431e-05
29 *361:18 *519:37 3.51209e-05
30 *418:21 *1386:A1 0
31 *420:16 *1386:A1 2.64836e-05
32 *420:16 *519:37 0.000495856
33 *423:10 *1563:A 0
34 *423:10 *519:10 0
35 *424:36 *1563:A 0.000214175
36 *444:18 *519:37 0.000182061
37 *447:18 *519:10 8.26075e-05
38 *447:29 *1563:A 5.16316e-05
39 *447:29 *519:10 5.66921e-05
40 *447:50 *1563:A 5.32586e-05
41 *516:40 *1364:C 4.82774e-05
42 *516:40 *519:10 7.45617e-05
*RES
1 *1477:Q *519:8 43.8621 
2 *519:8 *519:10 5.25107 
3 *519:10 *1364:C 45.0532 
4 *519:10 *519:37 49.8238 
5 *519:37 *1386:A1 24.7089 
6 *519:8 *1563:A 44.8357 
*END

*D_NET *520 0.00525683
*CONN
*I *1564:A I *D sky130_fd_sc_hd__buf_1
*I *1377:B I *D sky130_fd_sc_hd__or3_2
*I *1364:B I *D sky130_fd_sc_hd__nor3_2
*I *1478:Q O *D sky130_fd_sc_hd__dfxtp_2
*CAP
1 *1564:A 0.000368544
2 *1377:B 0.000441382
3 *1364:B 0.000221226
4 *1478:Q 0.000536309
5 *520:19 0.000974272
6 *520:6 0.00092188
7 *1364:B *1364:A 1.90523e-05
8 *1364:B *545:59 2.03764e-06
9 *1377:B *544:20 0.000100891
10 *1564:A *1377:A 3.35885e-06
11 *1564:A *547:23 0.000140259
12 *1564:A *547:42 5.3304e-05
13 *1564:A *550:8 9.28078e-06
14 *1564:A *550:12 0.000173506
15 *1564:A *552:16 8.48502e-06
16 *1564:A *555:51 2.7037e-05
17 *520:19 *1377:A 1.86945e-05
18 *520:19 *545:59 0.000135557
19 *1364:C *1364:B 2.43944e-05
20 *1364:C *520:6 2.54096e-05
21 *1371:A1 *1564:A 4.66047e-05
22 *1374:A3 *1564:A 0.000191119
23 *1478:D *1364:B 6.17437e-06
24 *1478:D *520:6 8.76338e-05
25 *423:10 *1564:A 0
26 *424:36 *1564:A 0.00010018
27 *427:22 *1564:A 4.15283e-06
28 *516:40 *520:6 0.000267173
29 *519:10 *520:19 0
30 *519:37 *1377:B 0.000348911
*RES
1 *1478:Q *520:6 30.7679 
2 *520:6 *1364:B 25.9 
3 *520:6 *520:19 17.9621 
4 *520:19 *1377:B 44.3386 
5 *520:19 *1564:A 46.6793 
*END

*D_NET *521 0.00582503
*CONN
*I *1565:A I *D sky130_fd_sc_hd__buf_1
*I *1377:A I *D sky130_fd_sc_hd__or3_2
*I *1364:A I *D sky130_fd_sc_hd__nor3_2
*I *1479:Q O *D sky130_fd_sc_hd__dfxtp_2
*CAP
1 *1565:A 0
2 *1377:A 0.000483198
3 *1364:A 9.56044e-05
4 *1479:Q 0.000831269
5 *521:18 0.000814577
6 *521:12 0.00106704
7 *1364:A *545:40 5.50049e-05
8 *1364:A *545:59 9.67842e-05
9 *1377:A *1508:A 5.3304e-05
10 *1377:A *544:20 0.000161257
11 *1377:A *545:59 1.37349e-05
12 *1377:A *553:16 0.000208598
13 *1377:A *555:32 0
14 *1377:A *555:51 0.000110903
15 *521:12 *1303:A2 3.82851e-06
16 *521:12 *536:10 9.41704e-05
17 *521:12 *606:10 0.000227208
18 *521:18 *545:46 6.70831e-05
19 *521:18 *553:16 9.29393e-05
20 *521:18 *555:32 0
21 *1364:B *1364:A 1.90523e-05
22 *1364:C *1364:A 0
23 *1479:D *521:12 0.000191382
24 *1564:A *1377:A 3.35885e-06
25 *87:18 *521:18 1.92464e-05
26 *180:70 *521:12 1.09903e-05
27 *420:10 *1364:A 4.04598e-06
28 *447:14 *521:12 0.000247714
29 *447:64 *521:12 5.98028e-05
30 *447:68 *521:12 0.000262503
31 *519:37 *1377:A 0.000511733
32 *520:19 *1377:A 1.86945e-05
*RES
1 *1479:Q *521:12 39.0536 
2 *521:12 *521:18 18.7079 
3 *521:18 *1364:A 40.4236 
4 *521:18 *1377:A 49.1029 
5 *521:12 *1565:A 23 
*END

*D_NET *522 0.0198878
*CONN
*I *1352:B I *D sky130_fd_sc_hd__nand2_2
*I *1353:B I *D sky130_fd_sc_hd__or2_2
*I *1566:A I *D sky130_fd_sc_hd__buf_1
*I *1480:Q O *D sky130_fd_sc_hd__dfxtp_2
*CAP
1 *1352:B 1.11529e-05
2 *1353:B 0.00107788
3 *1566:A 0.00030102
4 *1480:Q 0.00048802
5 *522:27 0.00413355
6 *522:12 0.00383355
7 *1352:B *609:41 1.05658e-05
8 *1353:B *1422:D 5.58152e-06
9 *1353:B *557:71 8.61037e-06
10 *1353:B *611:35 0
11 *1566:A *537:10 0.000136702
12 *522:12 *523:26 0
13 *522:12 *537:10 0.000230235
14 *522:12 *538:10 5.51058e-05
15 *522:27 *1578:addr[5] 1.46064e-05
16 *522:27 *587:16 0.000200699
17 *1150:B *1566:A 1.01436e-05
18 *1153:B *1566:A 0
19 *1155:B *1566:A 5.50106e-05
20 *89:10 *522:12 0.000272383
21 *121:14 *1353:B 2.16496e-05
22 *151:72 *522:27 3.41883e-05
23 *189:30 *1353:B 0.000208288
24 *189:30 *522:27 0.00137411
25 *232:10 *1352:B 2.26406e-05
26 *244:88 *1566:A 2.3529e-05
27 *245:12 *1566:A 5.3304e-05
28 *247:10 *1566:A 0.000137216
29 *408:18 *1566:A 4.48644e-05
30 *409:18 *1353:B 0.00122866
31 *409:18 *1566:A 1.81712e-05
32 *409:18 *522:27 0.00543066
33 *410:8 *522:12 0.000425539
34 *446:50 *522:12 0
35 *479:18 *1566:A 2.01531e-05
*RES
1 *1480:Q *522:12 48.9889 
2 *522:12 *1566:A 44.5768 
3 *522:12 *522:27 18.5317 
4 *522:27 *1353:B 49.0389 
5 *522:27 *1352:B 46.3211 
*END

*D_NET *523 0.0132555
*CONN
*I *1567:A I *D sky130_fd_sc_hd__buf_1
*I *1348:B I *D sky130_fd_sc_hd__nand2_2
*I *1349:B I *D sky130_fd_sc_hd__or2_2
*I *1481:Q O *D sky130_fd_sc_hd__dfxtp_2
*CAP
1 *1567:A 0.00017597
2 *1348:B 0
3 *1349:B 0
4 *1481:Q 0.000137266
5 *523:57 0.000235751
6 *523:48 0.000949018
7 *523:38 0.00209833
8 *523:26 0.00189599
9 *523:12 0.000806458
10 *523:10 0.000137266
11 *1567:A *1398:B 0
12 *1567:A *537:18 9.41704e-05
13 *1567:A *538:10 3.22879e-05
14 *523:10 *1396:B 2.64616e-05
15 *523:10 *539:8 0
16 *523:10 *605:83 2.36844e-05
17 *523:26 *1397:A 5.50106e-05
18 *523:26 *1398:B 4.95081e-05
19 *523:26 *1568:A 6.71306e-06
20 *523:26 *537:18 4.94073e-05
21 *523:26 *539:8 0.000116314
22 *523:38 *1461:RESET_B 0
23 *523:38 *528:14 3.59235e-05
24 *523:38 *602:10 0.000111615
25 *523:38 *612:54 0.000652476
26 *523:38 *614:74 0.000350602
27 *523:48 *577:43 0
28 *523:48 *614:74 0.001378
29 *523:57 *1398:B 0
30 *523:57 *537:18 1.21972e-05
31 *1059:A *523:48 6.44725e-05
32 *1060:B1 *523:48 0
33 *1160:B *523:38 0.000153436
34 *1354:B *523:26 0.000338366
35 *1458:CLK *523:38 0.000121076
36 *1460:CLK *523:38 0.000383586
37 *90:8 *523:10 8.85189e-05
38 *160:78 *523:48 0
39 *168:31 *523:48 1.86973e-05
40 *180:32 *523:48 0.00050513
41 *406:12 *523:38 3.5471e-05
42 *410:8 *523:10 0.000192087
43 *410:8 *523:26 0
44 *448:97 *523:38 0.000227198
45 *478:58 *523:48 8.54984e-05
46 *479:34 *523:38 0.000592806
47 *480:87 *523:38 0.000815697
48 *481:38 *523:48 5.00775e-05
49 *482:20 *523:38 0.000152976
50 *522:12 *523:26 0
*RES
1 *1481:Q *523:10 41.2314 
2 *523:10 *523:12 15 
3 *523:12 *523:26 43.3193 
4 *523:26 *523:38 49.6869 
5 *523:38 *523:48 38.6168 
6 *523:48 *1349:B 23 
7 *523:12 *523:57 1.11857 
8 *523:57 *1348:B 23 
9 *523:57 *1567:A 26.5214 
*END

*D_NET *524 0.00174604
*CONN
*I *1568:A I *D sky130_fd_sc_hd__buf_1
*I *1351:B I *D sky130_fd_sc_hd__xor2_2
*I *1482:Q O *D sky130_fd_sc_hd__dfxtp_2
*CAP
1 *1568:A 0.000152496
2 *1351:B 0.000127201
3 *1482:Q 0.000262713
4 *524:8 0.00054241
5 *1351:B *1398:A 0.000187129
6 *1351:B *537:18 4.57412e-05
7 *1568:A *539:8 7.03766e-05
8 *1568:A *543:16 0
9 *524:8 *539:8 6.07611e-06
10 *524:8 *540:8 0
11 *524:8 *543:16 0
12 *524:8 *605:83 0
13 *91:10 *524:8 0.000295096
14 *407:10 *1351:B 5.00902e-05
15 *523:26 *1568:A 6.71306e-06
*RES
1 *1482:Q *524:8 43.075 
2 *524:8 *1351:B 18.5525 
3 *524:8 *1568:A 40.61 
*END

*D_NET *525 0.00248104
*CONN
*I *1569:A I *D sky130_fd_sc_hd__buf_1
*I *1350:B I *D sky130_fd_sc_hd__xor2_2
*I *1483:Q O *D sky130_fd_sc_hd__dfxtp_2
*CAP
1 *1569:A 0.000165208
2 *1350:B 0.00016492
3 *1483:Q 0.000108733
4 *525:10 0.000438862
5 *1350:B *537:18 0.000194318
6 *1350:B *541:12 0.000430347
7 *525:10 *537:18 0.000136486
8 *525:10 *541:12 0.000127272
9 *1355:C *1569:A 0.000180218
10 *1355:D *1569:A 2.02872e-05
11 *1481:CLK *1569:A 0.000306338
12 *1483:D *525:10 5.3304e-05
13 *403:6 *1569:A 5.3304e-05
14 *406:12 *1350:B 0
15 *446:50 *1569:A 4.21378e-05
16 *480:87 *1350:B 5.93018e-05
*RES
1 *1483:Q *525:10 40.5271 
2 *525:10 *1350:B 20.7793 
3 *525:10 *1569:A 42.4329 
*END

*D_NET *526 0.00179967
*CONN
*I *1357:A1_N I *D sky130_fd_sc_hd__o2bb2a_2
*I *1356:B2 I *D sky130_fd_sc_hd__o2bb2a_2
*I *1570:A I *D sky130_fd_sc_hd__buf_1
*I *1484:Q O *D sky130_fd_sc_hd__dfxtp_2
*CAP
1 *1357:A1_N 1.51204e-05
2 *1356:B2 6.94194e-05
3 *1570:A 0.000154329
4 *1484:Q 9.74339e-05
5 *526:10 0.000486712
6 *526:8 0.000375518
7 *1570:A *1463:RESET_B 1.05441e-05
8 *1570:A *557:28 0
9 *526:8 *1356:A1_N 3.3746e-05
10 *526:8 *527:14 4.08641e-05
11 *526:10 *1356:A1_N 7.8371e-05
12 *526:10 *557:16 0
13 *1159:A1 *1356:B2 9.84794e-05
14 *1358:C *1357:A1_N 5.595e-05
15 *54:8 *1570:A 6.51983e-05
16 *54:8 *526:10 1.38134e-05
17 *200:14 *1570:A 0
18 *200:14 *526:10 0
19 *248:8 *526:10 1.26598e-05
20 *412:12 *526:10 0
21 *512:24 *1357:A1_N 5.595e-05
22 *512:24 *526:8 0.000135557
*RES
1 *1484:Q *526:8 40.2579 
2 *526:8 *526:10 3.66643 
3 *526:10 *1570:A 40.2579 
4 *526:10 *1356:B2 39.0979 
5 *526:8 *1357:A1_N 38.6318 
*END

*D_NET *527 0.00348032
*CONN
*I *1571:A I *D sky130_fd_sc_hd__buf_1
*I *1357:B2 I *D sky130_fd_sc_hd__o2bb2a_2
*I *1356:A1_N I *D sky130_fd_sc_hd__o2bb2a_2
*I *1485:Q O *D sky130_fd_sc_hd__dfxtp_2
*CAP
1 *1571:A 0.000215097
2 *1357:B2 0.000188315
3 *1356:A1_N 0.000253999
4 *1485:Q 0.000217801
5 *527:14 0.000683605
6 *527:8 0.000674189
7 *1571:A *554:14 0.00012553
8 *527:14 *554:14 8.61138e-05
9 *1159:A1 *1356:A1_N 2.07283e-05
10 *1356:B1 *1356:A1_N 0.00014196
11 *1358:C *1357:B2 5.14746e-06
12 *196:10 *1357:B2 0.000178517
13 *200:8 *1356:A1_N 3.96403e-05
14 *412:12 *1356:A1_N 0.000182013
15 *413:8 *1356:A1_N 0.000114092
16 *447:151 *527:8 9.6332e-05
17 *447:158 *527:8 4.5051e-05
18 *512:24 *1571:A 0
19 *512:24 *527:14 5.92059e-05
20 *526:8 *1356:A1_N 3.3746e-05
21 *526:8 *527:14 4.08641e-05
22 *526:10 *1356:A1_N 7.8371e-05
*RES
1 *1485:Q *527:8 41.0036 
2 *527:8 *527:14 4.785 
3 *527:14 *1356:A1_N 43.7275 
4 *527:14 *1357:B2 40.5271 
5 *527:8 *1571:A 42.0186 
*END

*D_NET *528 0.00475233
*CONN
*I *1406:A I *D sky130_fd_sc_hd__and2_2
*I *1557:X O *D sky130_fd_sc_hd__buf_1
*CAP
1 *1406:A 0
2 *1557:X 8.69846e-05
3 *528:14 0.00105762
4 *528:8 0.0011446
5 *528:8 *600:6 1.14876e-05
6 *528:8 *602:20 2.93845e-05
7 *528:14 *543:16 0.000148062
8 *528:14 *602:10 8.4047e-05
9 *528:14 *605:20 0.000360039
10 *528:14 *605:34 0.00027731
11 *528:14 *605:51 0.000127263
12 *528:14 *606:138 6.99782e-05
13 *1481:CLK *528:14 0
14 *92:8 *528:14 2.12347e-06
15 *406:12 *528:14 0.000413623
16 *407:10 *528:14 4.60263e-05
17 *411:8 *528:14 0.000222123
18 *442:20 *528:14 0.000326854
19 *514:14 *528:14 0.00021039
20 *515:26 *528:14 9.84851e-05
21 *523:38 *528:14 3.59235e-05
*RES
1 *1557:X *528:8 39.0979 
2 *528:8 *528:14 40.8929 
3 *528:14 *1406:A 23 
*END

*D_NET *529 0.00115094
*CONN
*I *1401:A I *D sky130_fd_sc_hd__and2_2
*I *1558:X O *D sky130_fd_sc_hd__buf_1
*CAP
1 *1401:A 0
2 *1558:X 0.000440203
3 *529:8 0.000440203
4 *529:8 *530:10 5.3304e-05
5 *529:8 *606:103 3.22051e-05
6 *1558:A *529:8 6.17437e-06
7 *510:18 *529:8 5.3801e-05
8 *516:40 *529:8 0.000125048
*RES
1 *1558:X *529:8 30.3121 
2 *529:8 *1401:A 23 
*END

*D_NET *530 0.000903802
*CONN
*I *1402:A I *D sky130_fd_sc_hd__and2_2
*I *1559:X O *D sky130_fd_sc_hd__buf_1
*CAP
1 *1402:A 0
2 *1559:X 0.000161367
3 *530:10 0.000161367
4 *97:12 *530:10 0.000263878
5 *447:79 *530:10 0.000263887
6 *529:8 *530:10 5.3304e-05
*RES
1 *1559:X *530:10 42.2879 
2 *530:10 *1402:A 38 
*END

*D_NET *531 0.00859869
*CONN
*I *1403:A I *D sky130_fd_sc_hd__and2_2
*I *1560:X O *D sky130_fd_sc_hd__buf_1
*CAP
1 *1403:A 0
2 *1560:X 0
3 *531:8 0.002661
4 *531:4 0.002661
5 *531:8 *551:61 3.71369e-05
6 *531:8 *555:51 7.88926e-05
7 *1556:A *531:8 0.00244841
8 *10:15 *531:8 0.000106163
9 *424:28 *531:8 7.13587e-05
10 *427:6 *531:8 0.000230604
11 *427:22 *531:8 2.33991e-05
12 *511:22 *531:8 0.000263068
13 *515:26 *531:8 1.76557e-05
*RES
1 *1560:X *531:4 23 
2 *531:4 *531:8 42.4436 
3 *531:8 *1403:A 23 
*END

*D_NET *532 0.000128233
*CONN
*I *1404:A I *D sky130_fd_sc_hd__and2_2
*I *1561:X O *D sky130_fd_sc_hd__buf_1
*CAP
1 *1404:A 5.26017e-05
2 *1561:X 5.26017e-05
3 *240:6 *1404:A 2.30292e-05
*RES
1 *1561:X *1404:A 47.1186 
*END

*D_NET *533 0.00414939
*CONN
*I *1405:A I *D sky130_fd_sc_hd__and2_2
*I *1562:X O *D sky130_fd_sc_hd__buf_1
*CAP
1 *1405:A 0
2 *1562:X 0.000270885
3 *533:18 0.00103693
4 *533:8 0.00130782
5 *533:18 *1399:B 9.75779e-05
6 *533:18 *1410:B 1.34354e-05
7 *533:18 *605:79 1.4471e-05
8 *1361:D *533:18 1.02949e-05
9 *1411:B *533:18 0.000280481
10 *1417:A *533:18 0.000152446
11 *1494:CLK *533:18 0.000119313
12 *1494:D *533:18 3.59678e-05
13 *1562:A *533:8 0.000267173
14 *101:8 *533:18 0.000114092
15 *446:50 *533:18 0.000206386
16 *516:8 *533:18 0.000222113
*RES
1 *1562:X *533:8 41.9564 
2 *533:8 *533:18 34.7407 
3 *533:18 *1405:A 23 
*END

*D_NET *534 0.00199324
*CONN
*I *1285:A I *D sky130_fd_sc_hd__and2_2
*I *1563:X O *D sky130_fd_sc_hd__buf_1
*CAP
1 *1285:A 0
2 *1563:X 0.000249823
3 *534:8 0.000249823
4 *77:10 *534:8 0.000226306
5 *424:28 *534:8 0.00058503
6 *456:8 *534:8 0.000578833
7 *511:22 *534:8 0.000103427
*RES
1 *1563:X *534:8 34.1236 
2 *534:8 *1285:A 23 
*END

*D_NET *535 0.0012684
*CONN
*I *1393:A I *D sky130_fd_sc_hd__and2_2
*I *1564:X O *D sky130_fd_sc_hd__buf_1
*CAP
1 *1393:A 0
2 *1564:X 0.000319322
3 *535:10 0.000319322
4 *1371:A1 *535:10 2.07242e-05
5 *1418:CLK *535:10 0.000364553
6 *424:36 *535:10 5.37348e-06
7 *447:18 *535:10 1.6279e-05
8 *447:29 *535:10 0.000106381
9 *447:50 *535:10 0.000116442
*RES
1 *1564:X *535:10 44.6493 
2 *535:10 *1393:A 38 
*END

*D_NET *536 0.00190878
*CONN
*I *1394:A I *D sky130_fd_sc_hd__and2_2
*I *1565:X O *D sky130_fd_sc_hd__buf_1
*CAP
1 *1394:A 0.000525424
2 *1565:X 0.000139577
3 *536:10 0.000665001
4 *1394:A *1394:B 1.94968e-05
5 *87:10 *1394:A 3.22722e-05
6 *87:18 *1394:A 0.000269781
7 *87:18 *536:10 8.04817e-05
8 *180:70 *536:10 8.25811e-05
9 *521:12 *536:10 9.41704e-05
*RES
1 *1565:X *536:10 40.2993 
2 *536:10 *1394:A 45.1879 
*END

*D_NET *537 0.0100049
*CONN
*I *1395:A I *D sky130_fd_sc_hd__and2_2
*I *1566:X O *D sky130_fd_sc_hd__buf_1
*CAP
1 *1395:A 0
2 *1566:X 0.000361719
3 *537:28 7.87035e-05
4 *537:22 0.00181748
5 *537:18 0.00272231
6 *537:10 0.00134525
7 *537:18 *1398:A 0.000185434
8 *537:18 *1398:B 0.000270682
9 *537:18 *541:12 4.77247e-05
10 *537:28 *606:36 0.000141879
11 *1150:B *537:10 1.09475e-05
12 *1155:A *537:10 0.000135547
13 *1155:B *537:10 5.56279e-05
14 *1347:A *537:28 0
15 *1348:A *537:10 0.000469786
16 *1350:B *537:18 0.000194318
17 *1351:B *537:18 4.57412e-05
18 *1358:A *537:18 6.47351e-05
19 *1481:CLK *537:18 0.000212217
20 *1566:A *537:10 0.000136702
21 *1567:A *537:18 9.41704e-05
22 *88:8 *537:28 0
23 *91:10 *537:18 5.67058e-05
24 *247:10 *537:10 0.000134984
25 *406:12 *537:18 0
26 *407:10 *537:18 2.89917e-05
27 *447:68 *537:22 0.000236214
28 *447:75 *537:22 8.59258e-05
29 *447:138 *537:22 4.77393e-05
30 *447:151 *537:22 0.000155182
31 *447:158 *537:22 0.000219935
32 *447:173 *537:18 7.20381e-05
33 *475:59 *537:10 1.02738e-05
34 *517:34 *537:22 0.000137651
35 *522:12 *537:10 0.000230235
36 *523:26 *537:18 4.94073e-05
37 *523:57 *537:18 1.21972e-05
38 *525:10 *537:18 0.000136486
*RES
1 *1566:X *537:10 48.2743 
2 *537:10 *537:18 49.6164 
3 *537:18 *537:22 38.9664 
4 *537:22 *537:28 31.9057 
5 *537:28 *1395:A 23 
*END

*D_NET *538 0.000563011
*CONN
*I *1396:A I *D sky130_fd_sc_hd__and2_2
*I *1567:X O *D sky130_fd_sc_hd__buf_1
*CAP
1 *1396:A 0
2 *1567:X 0.000237809
3 *538:10 0.000237809
4 *1567:A *538:10 3.22879e-05
5 *522:12 *538:10 5.51058e-05
*RES
1 *1567:X *538:10 41.8321 
2 *538:10 *1396:A 38 
*END

*D_NET *539 0.000549732
*CONN
*I *1397:A I *D sky130_fd_sc_hd__and2_2
*I *1568:X O *D sky130_fd_sc_hd__buf_1
*CAP
1 *1397:A 3.77887e-05
2 *1568:X 6.39456e-05
3 *539:8 0.000101734
4 *1397:A *1398:B 9.84851e-05
5 *1568:A *539:8 7.03766e-05
6 *523:10 *539:8 0
7 *523:26 *1397:A 5.50106e-05
8 *523:26 *539:8 0.000116314
9 *524:8 *539:8 6.07611e-06
*RES
1 *1568:X *539:8 39.9057 
2 *539:8 *1397:A 39.0979 
*END

*D_NET *540 0.000691418
*CONN
*I *1398:A I *D sky130_fd_sc_hd__and2_2
*I *1569:X O *D sky130_fd_sc_hd__buf_1
*CAP
1 *1398:A 2.63783e-05
2 *1569:X 9.83716e-05
3 *540:8 0.00012475
4 *540:8 *543:16 6.93553e-05
5 *1351:B *1398:A 0.000187129
6 *524:8 *540:8 0
7 *537:18 *1398:A 0.000185434
*RES
1 *1569:X *540:8 39.9057 
2 *540:8 *1398:A 40.0507 
*END

*D_NET *541 0.00344491
*CONN
*I *1399:A I *D sky130_fd_sc_hd__and2_2
*I *1570:X O *D sky130_fd_sc_hd__buf_1
*CAP
1 *1399:A 0
2 *1570:X 0.000288758
3 *541:12 0.000587157
4 *541:8 0.000875914
5 *541:8 *1463:RESET_B 4.96717e-05
6 *541:8 *602:20 0.000136678
7 *1350:B *541:12 0.000430347
8 *447:173 *541:12 4.31263e-05
9 *480:87 *541:12 0
10 *508:123 *541:12 0.000677344
11 *517:40 *541:12 0.000180916
12 *525:10 *541:12 0.000127272
13 *537:18 *541:12 4.77247e-05
*RES
1 *1570:X *541:8 41.9564 
2 *541:8 *541:12 29.935 
3 *541:12 *1399:A 23 
*END

*D_NET *542 0.000641376
*CONN
*I *1400:A I *D sky130_fd_sc_hd__and2_2
*I *1571:X O *D sky130_fd_sc_hd__buf_1
*CAP
1 *1400:A 0
2 *1571:X 0.000219244
3 *542:8 0.000219244
4 *542:8 *1400:B 5.68958e-05
5 *93:10 *542:8 5.3304e-05
6 *510:18 *542:8 9.26881e-05
*RES
1 *1571:X *542:8 27.4536 
2 *542:8 *1400:A 23 
*END

*D_NET *543 0.00468776
*CONN
*I *1552:A I *D sky130_fd_sc_hd__clkdlybuf4s25_1
*I *1572:X O *D sky130_fd_sc_hd__clkdlybuf4s25_1
*CAP
1 *1552:A 0
2 *1572:X 0.000267317
3 *543:16 0.00106665
4 *543:8 0.00133397
5 *543:8 *605:51 5.3304e-05
6 *543:16 *605:10 0.000108681
7 *543:16 *605:20 0.000357798
8 *543:16 *605:34 0.000286534
9 *543:16 *605:51 0.000114074
10 *1568:A *543:16 0
11 *91:10 *543:16 0
12 *96:10 *543:8 0.000269775
13 *98:8 *543:16 0.000131847
14 *99:8 *543:16 0
15 *407:10 *543:16 0.000293795
16 *411:8 *543:16 1.22906e-05
17 *444:18 *543:16 0
18 *447:109 *543:16 0.000160191
19 *515:26 *543:8 1.41129e-05
20 *517:34 *543:16 0
21 *524:8 *543:16 0
22 *528:14 *543:16 0.000148062
23 *540:8 *543:16 6.93553e-05
*RES
1 *1572:X *543:8 41.9564 
2 *543:8 *543:16 37.3921 
3 *543:16 *1552:A 23 
*END

*D_NET *544 0.00649906
*CONN
*I *1368:B I *D sky130_fd_sc_hd__or2_2
*I *1379:B1_N I *D sky130_fd_sc_hd__o21ba_2
*I *1383:A0 I *D sky130_fd_sc_hd__mux2_1
*I *1297:B I *D sky130_fd_sc_hd__nand2_2
*I *1499:X O *D sky130_fd_sc_hd__clkdlybuf4s25_1
*CAP
1 *1368:B 8.88193e-06
2 *1379:B1_N 0
3 *1383:A0 3.4787e-05
4 *1297:B 0
5 *1499:X 0
6 *544:34 0.000901505
7 *544:26 0.0011216
8 *544:20 0.00090172
9 *544:4 0.000725294
10 *1368:B *1368:A 5.67058e-05
11 *544:20 *1304:A1 5.50106e-05
12 *544:20 *1368:A 0.000186195
13 *544:20 *1508:A 5.3304e-05
14 *544:20 *552:59 0.000180218
15 *544:34 *552:59 0
16 *1372:A1 *544:34 1.44678e-05
17 *1377:A *544:20 0.000161257
18 *1377:B *544:20 0.000100891
19 *1381:A3 *544:34 0.000187065
20 *1388:B *544:34 7.21567e-05
21 *1389:B1 *1383:A0 1.37349e-05
22 *356:45 *544:34 1.19692e-05
23 *360:10 *544:20 0.000155022
24 *423:10 *1368:B 1.76557e-05
25 *423:10 *544:20 5.70419e-05
26 *430:10 *544:20 0.000182832
27 *432:8 *544:26 3.11006e-05
28 *435:20 *544:34 0.000354283
29 *438:14 *1383:A0 3.0647e-05
30 *438:14 *544:26 4.6318e-06
31 *487:14 *1383:A0 7.70737e-05
32 *487:14 *544:26 0.000131847
33 *508:18 *544:20 0.000259622
34 *519:37 *544:20 0.000410542
*RES
1 *1499:X *544:4 23 
2 *544:4 *544:20 19.5957 
3 *544:20 *544:26 18.0036 
4 *544:26 *544:34 42.7807 
5 *544:34 *1297:B 38 
6 *544:26 *1383:A0 39.2014 
7 *544:20 *1379:B1_N 23 
8 *544:4 *1368:B 23.6214 
*END

*D_NET *545 0.0076777
*CONN
*I *1499:A I *D sky130_fd_sc_hd__clkdlybuf4s25_1
*I *1303:B1 I *D sky130_fd_sc_hd__a21o_2
*I *1301:C_N I *D sky130_fd_sc_hd__or3b_2
*I *1298:D I *D sky130_fd_sc_hd__and4_2
*I *1500:X O *D sky130_fd_sc_hd__clkdlybuf4s25_1
*CAP
1 *1499:A 0
2 *1303:B1 0
3 *1301:C_N 0.000263432
4 *1298:D 5.89911e-05
5 *1500:X 0.000661534
6 *545:59 0.000294102
7 *545:46 0.000138788
8 *545:40 0.000826574
9 *545:27 0.00115838
10 *545:10 0.00122179
11 *1298:D *1298:B 5.79559e-05
12 *1301:C_N *1301:A 0.000180841
13 *1301:C_N *1301:B 0.000183457
14 *1301:C_N *551:61 8.34394e-05
15 *545:10 *570:69 0.000143158
16 *545:10 *610:51 7.43748e-05
17 *545:10 *610:70 8.73233e-05
18 *545:27 *551:38 1.74053e-05
19 *545:40 *551:61 8.85483e-05
20 *545:46 *555:17 5.99567e-06
21 *545:46 *555:32 2.96331e-05
22 *545:59 *553:16 0.00023255
23 *1284:B1 *545:27 7.56401e-05
24 *1305:B1 *1301:C_N 0
25 *1364:A *545:40 5.50049e-05
26 *1364:A *545:59 9.67842e-05
27 *1364:B *545:59 2.03764e-06
28 *1364:C *545:59 2.64616e-05
29 *1377:A *545:59 1.37349e-05
30 *46:12 *545:27 0.000260579
31 *47:6 *1298:D 7.51453e-06
32 *87:18 *545:59 8.34784e-05
33 *151:72 *545:27 0.000331864
34 *197:26 *545:10 1.17773e-05
35 *218:20 *545:10 0.000183398
36 *235:10 *545:27 0.000104551
37 *352:14 *545:10 0
38 *354:10 *545:27 4.81429e-05
39 *354:27 *545:27 9.96671e-05
40 *359:10 *545:27 8.27285e-05
41 *408:10 *545:10 0
42 *420:10 *545:40 1.75205e-05
43 *430:20 *1301:C_N 9.16336e-05
44 *478:28 *545:10 7.42748e-05
45 *519:10 *545:59 0
46 *520:19 *545:59 0.000135557
47 *521:18 *545:46 6.70831e-05
*RES
1 *1500:X *545:10 47.9843 
2 *545:10 *1298:D 39.2429 
3 *545:10 *545:27 26.9314 
4 *545:27 *1301:C_N 28.9036 
5 *545:27 *545:40 4.90929 
6 *545:40 *545:46 32.2579 
7 *545:46 *1303:B1 23 
8 *545:40 *545:59 35.7171 
9 *545:59 *1499:A 23 
*END

*D_NET *546 0.00582412
*CONN
*I *1380:B1 I *D sky130_fd_sc_hd__a21oi_2
*I *1373:A_N I *D sky130_fd_sc_hd__nand2b_2
*I *1382:A0 I *D sky130_fd_sc_hd__mux2_1
*I *1302:B I *D sky130_fd_sc_hd__nor2_2
*I *1501:X O *D sky130_fd_sc_hd__clkdlybuf4s25_1
*CAP
1 *1380:B1 0
2 *1373:A_N 0
3 *1382:A0 0
4 *1302:B 0.000448453
5 *1501:X 0.000644801
6 *546:50 0.000260618
7 *546:40 0.000429648
8 *546:27 0.000214729
9 *546:8 0.00113895
10 *1302:B *1301:B 2.3882e-05
11 *1302:B *1379:A1 3.62323e-05
12 *1302:B *553:16 7.11634e-05
13 *546:8 *555:51 0.000128798
14 *546:27 *1379:A1 3.72639e-05
15 *546:40 *1379:A1 2.70366e-05
16 *546:40 *1380:A1 6.08751e-05
17 *546:40 *1389:A1 9.84851e-05
18 *546:40 *1502:A 3.43537e-05
19 *546:40 *552:24 9.67842e-05
20 *546:50 *1502:A 1.01436e-05
21 *546:50 *610:70 0
22 *1082:A_N *1302:B 4.91626e-05
23 *358:14 *1302:B 0.000151344
24 *358:25 *1302:B 6.7491e-05
25 *358:25 *546:27 4.08641e-05
26 *358:25 *546:40 2.96051e-05
27 *420:10 *1302:B 0.00020495
28 *427:6 *546:50 0.000187129
29 *428:10 *546:50 0.000166513
30 *438:10 *546:8 0.000909782
31 *458:16 *1302:B 0
32 *458:16 *546:50 0
33 *486:37 *1302:B 6.79274e-05
34 *511:22 *546:50 0.000187129
*RES
1 *1501:X *546:8 48.15 
2 *546:8 *1302:B 47.9014 
3 *546:8 *546:27 1.20143 
4 *546:27 *1382:A0 38 
5 *546:27 *546:40 18.7079 
6 *546:40 *546:50 35.9864 
7 *546:50 *1373:A_N 23 
8 *546:40 *1380:B1 23 
*END

*D_NET *547 0.00823375
*CONN
*I *1370:A I *D sky130_fd_sc_hd__nand2_2
*I *1371:A0 I *D sky130_fd_sc_hd__mux2_1
*I *1374:A1 I *D sky130_fd_sc_hd__a311o_2
*I *1502:X O *D sky130_fd_sc_hd__clkdlybuf4s25_1
*CAP
1 *1370:A 0
2 *1371:A0 0
3 *1374:A1 0
4 *1502:X 0.000287532
5 *547:42 0.0014027
6 *547:23 0.0016457
7 *547:16 0.000243003
8 *547:14 0.000287532
9 *547:14 *551:61 1.02561e-05
10 *547:23 *1374:C1 5.3304e-05
11 *547:42 *606:138 1.53024e-05
12 *1374:A2 *547:14 4.17736e-05
13 *1374:A3 *547:23 8.12378e-05
14 *1374:A3 *547:42 5.58534e-05
15 *1564:A *547:23 0.000140259
16 *1564:A *547:42 5.3304e-05
17 *5:15 *547:42 0
18 *12:15 *547:42 0.000240931
19 *353:22 *547:14 9.75779e-05
20 *353:34 *547:42 0.00269531
21 *358:42 *547:14 2.64314e-05
22 *425:12 *547:42 0.000104089
23 *508:123 *547:42 4.97925e-05
24 *511:22 *547:42 0.000464861
25 *511:37 *547:42 0.000237007
*RES
1 *1502:X *547:14 41.7907 
2 *547:14 *547:16 15 
3 *547:16 *1374:A1 23 
4 *547:16 *547:23 3.95643 
5 *547:23 *1371:A0 23 
6 *547:23 *547:42 38.6139 
7 *547:42 *1370:A 38 
*END

*D_NET *548 0.00531076
*CONN
*I *1501:A I *D sky130_fd_sc_hd__clkdlybuf4s25_1
*I *1502:A I *D sky130_fd_sc_hd__clkdlybuf4s25_1
*I *1304:A1 I *D sky130_fd_sc_hd__a21o_2
*I *1298:C I *D sky130_fd_sc_hd__and4_2
*I *1503:X O *D sky130_fd_sc_hd__clkdlybuf4s25_1
*CAP
1 *1501:A 0.000263291
2 *1502:A 0.000124139
3 *1304:A1 4.24857e-05
4 *1298:C 0.00020409
5 *1503:X 0.00015229
6 *548:36 0.000558587
7 *548:25 0.000777047
8 *548:8 0.000919784
9 *1298:C *608:59 2.05503e-05
10 *1501:A *1504:A 1.05441e-05
11 *1501:A *549:6 0.000267178
12 *1501:A *610:70 1.94377e-05
13 *1502:A *1389:A1 4.32748e-05
14 *1502:A *1504:A 9.33529e-06
15 *548:25 *551:21 4.48974e-05
16 *548:25 *551:38 0.000219097
17 *548:25 *553:16 5.95625e-06
18 *548:25 *608:59 1.45025e-05
19 *548:36 *610:70 0
20 *46:12 *548:25 3.95159e-06
21 *46:20 *548:8 0.000177604
22 *47:12 *1298:C 8.27285e-05
23 *352:14 *1298:C 0.000134242
24 *352:14 *548:25 0
25 *353:22 *1502:A 0
26 *354:10 *1298:C 0
27 *354:27 *1298:C 0
28 *358:14 *548:25 0.000238822
29 *358:14 *548:36 4.87235e-05
30 *358:25 *1502:A 8.9391e-05
31 *358:25 *548:36 0.000197567
32 *358:42 *1501:A 0.000168995
33 *359:10 *548:25 7.10099e-05
34 *359:10 *548:36 2.44117e-05
35 *438:10 *1501:A 0.000125913
36 *456:48 *1298:C 4.31255e-05
37 *456:48 *548:25 0.000108278
38 *544:20 *1304:A1 5.50106e-05
39 *546:40 *1502:A 3.43537e-05
40 *546:50 *1502:A 1.01436e-05
*RES
1 *1503:X *548:8 40.0507 
2 *548:8 *1298:C 42.3707 
3 *548:8 *548:25 10.4607 
4 *548:25 *1304:A1 38.6214 
5 *548:25 *548:36 3.49036 
6 *548:36 *1502:A 41.1382 
7 *548:36 *1501:A 44.2039 
*END

*D_NET *549 0.00457786
*CONN
*I *1380:A1 I *D sky130_fd_sc_hd__a21oi_2
*I *1379:A1 I *D sky130_fd_sc_hd__o21ba_2
*I *1388:A I *D sky130_fd_sc_hd__nor2_2
*I *1382:S I *D sky130_fd_sc_hd__mux2_1
*I *1504:X O *D sky130_fd_sc_hd__clkdlybuf4s25_1
*CAP
1 *1380:A1 0.000192783
2 *1379:A1 0.000171794
3 *1388:A 0
4 *1382:S 0
5 *1504:X 0.000125357
6 *549:36 0.000364578
7 *549:29 0.00060223
8 *549:19 0.00078009
9 *549:6 0.000303216
10 *1379:A1 *552:28 0.000119142
11 *1380:A1 *1389:A1 6.05374e-05
12 *1380:A1 *552:24 6.78763e-05
13 *1380:A1 *552:28 5.62433e-05
14 *1302:B *1379:A1 3.62323e-05
15 *1382:A1 *549:19 5.50049e-05
16 *1383:S *549:29 7.44161e-06
17 *1388:B *549:29 6.53382e-05
18 *1501:A *549:6 0.000267178
19 *356:82 *549:29 2.41176e-05
20 *358:42 *549:6 7.36613e-05
21 *358:58 *549:19 5.55371e-05
22 *358:58 *549:29 5.79715e-05
23 *420:10 *1379:A1 5.79438e-05
24 *432:12 *549:29 9.58714e-05
25 *432:26 *549:29 0.000182832
26 *435:20 *549:29 6.70895e-05
27 *437:10 *549:29 5.88461e-05
28 *438:10 *549:6 0.000481943
29 *438:10 *549:19 1.03836e-05
30 *439:8 *549:29 1.14452e-05
31 *546:27 *1379:A1 3.72639e-05
32 *546:40 *1379:A1 2.70366e-05
33 *546:40 *1380:A1 6.08751e-05
*RES
1 *1504:X *549:6 28.3857 
2 *549:6 *1382:S 23 
3 *549:6 *549:19 3.54214 
4 *549:19 *549:29 38.7621 
5 *549:29 *1388:A 23 
6 *549:19 *549:36 15 
7 *549:36 *1379:A1 41.6664 
8 *549:36 *1380:A1 41.6768 
*END

*D_NET *550 0.00872028
*CONN
*I *1374:C1 I *D sky130_fd_sc_hd__a311o_2
*I *1369:A I *D sky130_fd_sc_hd__nand2_2
*I *1389:A1 I *D sky130_fd_sc_hd__o21a_2
*I *1504:A I *D sky130_fd_sc_hd__clkdlybuf4s25_1
*I *1505:X O *D sky130_fd_sc_hd__clkdlybuf4s25_1
*CAP
1 *1374:C1 2.32701e-05
2 *1369:A 0
3 *1389:A1 0.000362296
4 *1504:A 8.7158e-06
5 *1505:X 0.000118605
6 *550:48 0.00151498
7 *550:16 0.000867433
8 *550:12 0.00209077
9 *550:8 0.000221246
10 *1389:A1 *552:24 0.000182573
11 *1389:A1 *610:70 4.04634e-05
12 *1504:A *610:70 3.34818e-06
13 *550:8 *552:8 0
14 *1374:A3 *1374:C1 5.3304e-05
15 *1374:A3 *550:8 0
16 *1380:A1 *1389:A1 6.05374e-05
17 *1501:A *1504:A 1.05441e-05
18 *1502:A *1389:A1 4.32748e-05
19 *1502:A *1504:A 9.33529e-06
20 *1564:A *550:8 9.28078e-06
21 *1564:A *550:12 0.000173506
22 *11:15 *550:48 4.96824e-05
23 *13:15 *550:48 0.000378154
24 *341:31 *550:48 0
25 *353:22 *1389:A1 4.6318e-06
26 *353:34 *550:16 0.000144631
27 *353:34 *550:48 0.000782712
28 *417:16 *550:16 0.000178277
29 *417:16 *550:48 0.000684929
30 *426:6 *1389:A1 1.21972e-05
31 *427:22 *550:8 0.000147206
32 *427:22 *550:12 0.000173506
33 *433:10 *1389:A1 0.000137651
34 *447:94 *550:48 5.3304e-05
35 *508:123 *550:48 7.57281e-06
36 *511:22 *550:16 0
37 *515:26 *550:48 2.05503e-05
38 *546:40 *1389:A1 9.84851e-05
39 *547:23 *1374:C1 5.3304e-05
*RES
1 *1505:X *550:8 40.2579 
2 *550:8 *550:12 10.4339 
3 *550:12 *550:16 9.25813 
4 *550:16 *1504:A 38.3211 
5 *550:16 *1389:A1 45.9646 
6 *550:12 *550:48 29.4081 
7 *550:48 *1369:A 23 
8 *550:8 *1374:C1 38.6214 
*END

*D_NET *551 0.00754343
*CONN
*I *1505:A I *D sky130_fd_sc_hd__clkdlybuf4s25_1
*I *1301:A I *D sky130_fd_sc_hd__or3b_2
*I *1303:A1 I *D sky130_fd_sc_hd__a21o_2
*I *1298:A I *D sky130_fd_sc_hd__and4_2
*I *1506:X O *D sky130_fd_sc_hd__clkdlybuf4s25_1
*CAP
1 *1505:A 0
2 *1301:A 5.64281e-05
3 *1303:A1 0.000440742
4 *1298:A 0
5 *1506:X 0
6 *551:61 0.000781121
7 *551:38 0.000990307
8 *551:21 0.000668733
9 *551:12 0.000503409
10 *551:4 0.000578642
11 *551:12 *609:41 0.000172387
12 *551:61 *1284:A1 3.54739e-05
13 *551:61 *552:16 2.71291e-05
14 *551:61 *555:32 5.12342e-05
15 *551:61 *555:51 5.60664e-05
16 *551:61 *610:70 0.00044221
17 *1284:B1 *551:61 5.3304e-05
18 *1301:C_N *1301:A 0.000180841
19 *1301:C_N *551:61 8.34394e-05
20 *46:12 *551:21 0.000105947
21 *46:12 *551:38 5.64582e-05
22 *180:70 *1303:A1 0.000347301
23 *352:14 *551:12 0.000430701
24 *353:34 *551:61 2.31209e-05
25 *354:27 *551:12 1.21972e-05
26 *358:42 *551:61 0
27 *359:10 *551:38 0.000132927
28 *420:10 *551:61 4.02366e-05
29 *427:22 *551:61 5.41385e-05
30 *430:20 *1301:A 0.000180841
31 *430:20 *551:61 9.5877e-05
32 *456:48 *551:12 0.000267381
33 *458:16 *551:12 1.59312e-05
34 *486:37 *1303:A1 0.000178517
35 *486:50 *1303:A1 1.56762e-05
36 *508:26 *551:61 4.73652e-05
37 *531:8 *551:61 3.71369e-05
38 *545:27 *551:38 1.74053e-05
39 *545:40 *551:61 8.85483e-05
40 *547:14 *551:61 1.02561e-05
41 *548:25 *551:21 4.48974e-05
42 *548:25 *551:38 0.000219097
*RES
1 *1506:X *551:4 23 
2 *551:4 *551:12 39.6114 
3 *551:12 *1298:A 23 
4 *551:4 *551:21 16.5536 
5 *551:21 *1303:A1 45.4571 
6 *551:21 *551:38 18.3143 
7 *551:38 *1301:A 25.0507 
8 *551:38 *551:61 46.7786 
9 *551:61 *1505:A 23 
*END

*D_NET *552 0.00945747
*CONN
*I *1380:A2 I *D sky130_fd_sc_hd__a21oi_2
*I *1379:A2 I *D sky130_fd_sc_hd__o21ba_2
*I *1297:A I *D sky130_fd_sc_hd__nand2_2
*I *1301:B I *D sky130_fd_sc_hd__or3b_2
*I *1507:X O *D sky130_fd_sc_hd__clkdlybuf4s25_1
*CAP
1 *1380:A2 0
2 *1379:A2 0
3 *1297:A 0
4 *1301:B 0.000314232
5 *1507:X 6.55145e-05
6 *552:59 0.00110637
7 *552:41 0.00110637
8 *552:28 0.000572347
9 *552:24 0.000512207
10 *552:16 0.00078185
11 *552:8 0.000593272
12 *552:59 *637:45 0
13 *1301:C_N *1301:B 0.000183457
14 *1302:B *1301:B 2.3882e-05
15 *1371:A1 *552:16 0.000143655
16 *1374:A2 *552:24 2.64616e-05
17 *1374:A3 *552:16 9.45591e-05
18 *1379:A1 *552:28 0.000119142
19 *1380:A1 *552:24 6.78763e-05
20 *1380:A1 *552:28 5.62433e-05
21 *1389:A1 *552:24 0.000182573
22 *1563:A *552:8 4.08641e-05
23 *1564:A *552:16 8.48502e-06
24 *342:31 *552:59 0.000117237
25 *353:10 *552:59 5.79559e-05
26 *353:22 *552:24 9.17998e-05
27 *356:45 *552:59 0
28 *356:75 *552:59 0.000167354
29 *360:10 *1301:B 0.000137238
30 *360:10 *552:59 5.3304e-05
31 *361:18 *552:59 0.000776942
32 *418:36 *552:59 8.24109e-05
33 *420:10 *1301:B 3.56711e-05
34 *420:10 *552:28 4.24694e-06
35 *426:6 *552:16 0.00030894
36 *426:6 *552:24 0.000718557
37 *435:20 *552:59 0.000188927
38 *458:16 *1301:B 6.47648e-05
39 *458:16 *552:28 0.000327881
40 *519:37 *552:59 2.07355e-05
41 *544:20 *552:59 0.000180218
42 *544:34 *552:59 0
43 *546:40 *552:24 9.67842e-05
44 *550:8 *552:8 0
45 *551:61 *552:16 2.71291e-05
*RES
1 *1507:X *552:8 39.2014 
2 *552:8 *552:16 38.1407 
3 *552:16 *552:24 23.8864 
4 *552:24 *552:28 20.7793 
5 *552:28 *1301:B 43.7171 
6 *552:28 *552:41 15 
7 *552:41 *552:59 49.4093 
8 *552:59 *1297:A 23 
9 *552:41 *1379:A2 23 
10 *552:24 *1380:A2 23 
*END

*D_NET *553 0.00419343
*CONN
*I *1368:A I *D sky130_fd_sc_hd__or2_2
*I *1302:A I *D sky130_fd_sc_hd__nor2_2
*I *1508:X O *D sky130_fd_sc_hd__clkdlybuf4s25_1
*CAP
1 *1368:A 0.000123989
2 *1302:A 0
3 *1508:X 0
4 *553:16 0.000698826
5 *553:4 0.000822815
6 *1302:B *553:16 7.11634e-05
7 *1368:B *1368:A 5.67058e-05
8 *1377:A *553:16 0.000208598
9 *87:18 *553:16 2.52335e-05
10 *341:12 *553:16 0.000138124
11 *358:14 *553:16 6.85548e-05
12 *423:10 *1368:A 2.31797e-05
13 *444:18 *553:16 0.000868749
14 *508:18 *1368:A 0.000482838
15 *508:26 *553:16 0
16 *508:28 *553:16 0
17 *519:37 *553:16 8.70086e-05
18 *521:18 *553:16 9.29393e-05
19 *544:20 *1368:A 0.000186195
20 *545:59 *553:16 0.00023255
21 *548:25 *553:16 5.95625e-06
*RES
1 *1508:X *553:4 23 
2 *553:4 *553:16 38.2596 
3 *553:16 *1302:A 38 
4 *553:4 *1368:A 28.3857 
*END

*D_NET *554 0.00358627
*CONN
*I *1103:A I *D sky130_fd_sc_hd__xor2_2
*I *1573:X O *D sky130_fd_sc_hd__clkdlybuf4s25_1
*CAP
1 *1103:A 0
2 *1573:X 0.000147385
3 *554:14 0.00100607
4 *554:8 0.00115345
5 *1571:A *554:14 0.00012553
6 *93:10 *554:14 0.000327998
7 *196:10 *554:14 0.000409172
8 *413:8 *554:14 2.96154e-05
9 *425:12 *554:8 5.04167e-05
10 *510:18 *554:14 0
11 *512:24 *554:14 0.000250524
12 *527:14 *554:14 8.61138e-05
*RES
1 *1573:X *554:8 40.0507 
2 *554:8 *554:14 35.4243 
3 *554:14 *1103:A 23 
*END

*D_NET *555 0.00696173
*CONN
*I *1507:A I *D sky130_fd_sc_hd__clkdlybuf4s25_1
*I *1508:A I *D sky130_fd_sc_hd__clkdlybuf4s25_1
*I *1303:A2 I *D sky130_fd_sc_hd__a21o_2
*I *1298:B I *D sky130_fd_sc_hd__and4_2
*I *1509:X O *D sky130_fd_sc_hd__clkdlybuf4s25_1
*CAP
1 *1507:A 0
2 *1508:A 2.32701e-05
3 *1303:A2 0.000137079
4 *1298:B 0.000288045
5 *1509:X 0
6 *555:51 0.000765335
7 *555:32 0.00104608
8 *555:17 0.000853792
9 *555:4 0.000747282
10 *1298:B *1509:A 0.000308039
11 *555:17 *1139:B1 6.48e-05
12 *555:17 *1284:A1 9.17422e-05
13 *1298:D *1298:B 5.79559e-05
14 *1377:A *1508:A 5.3304e-05
15 *1377:A *555:32 0
16 *1377:A *555:51 0.000110903
17 *1419:CLK *555:17 0.000259534
18 *1564:A *555:51 2.7037e-05
19 *47:6 *1298:B 3.29546e-05
20 *87:10 *555:17 8.8873e-05
21 *180:70 *1303:A2 0.000235108
22 *180:70 *555:17 0
23 *354:10 *1298:B 1.94812e-05
24 *358:42 *555:51 0.000137242
25 *359:10 *1303:A2 2.93845e-05
26 *427:22 *555:51 0.000353115
27 *448:17 *555:17 0.000232855
28 *478:28 *1298:B 0.000272648
29 *486:50 *555:17 9.28078e-06
30 *486:50 *555:32 0.000200133
31 *508:26 *555:32 4.45778e-05
32 *517:70 *555:17 0
33 *519:37 *555:32 5.98757e-05
34 *519:37 *555:51 4.24694e-06
35 *521:12 *1303:A2 3.82851e-06
36 *521:18 *555:32 0
37 *531:8 *555:51 7.88926e-05
38 *544:20 *1508:A 5.3304e-05
39 *545:46 *555:17 5.99567e-06
40 *545:46 *555:32 2.96331e-05
41 *546:8 *555:51 0.000128798
42 *551:61 *555:32 5.12342e-05
43 *551:61 *555:51 5.60664e-05
*RES
1 *1509:X *555:4 23 
2 *555:4 *1298:B 30.3121 
3 *555:4 *555:17 23.9486 
4 *555:17 *1303:A2 41.6457 
5 *555:17 *555:32 5.42714 
6 *555:32 *1508:A 38.6214 
7 *555:32 *555:51 28.195 
8 *555:51 *1507:A 23 
*END

*D_NET *556 0.0084263
*CONN
*I *1257:A2 I *D sky130_fd_sc_hd__a32o_2
*I *1228:A I *D sky130_fd_sc_hd__nand2_2
*I *1214:B I *D sky130_fd_sc_hd__nand4_2
*I *1210:A I *D sky130_fd_sc_hd__nor2_2
*I *1216:A1 I *D sky130_fd_sc_hd__o211a_2
*I *1211:A_N I *D sky130_fd_sc_hd__and3b_2
*I *1215:A1 I *D sky130_fd_sc_hd__o21a_2
*I *1114:A2 I *D sky130_fd_sc_hd__a41o_2
*I *1222:A2 I *D sky130_fd_sc_hd__a31o_2
*I *1102:A I *D sky130_fd_sc_hd__nand2_2
*I *1510:X O *D sky130_fd_sc_hd__clkdlybuf4s25_1
*CAP
1 *1257:A2 0
2 *1228:A 3.3895e-05
3 *1214:B 0.000130047
4 *1210:A 0
5 *1216:A1 0
6 *1211:A_N 0
7 *1215:A1 0
8 *1114:A2 0
9 *1222:A2 0.000269896
10 *1102:A 3.51562e-05
11 *1510:X 9.84074e-05
12 *556:117 0.000211203
13 *556:93 0.000187424
14 *556:66 7.21099e-05
15 *556:60 9.98318e-05
16 *556:58 7.29435e-05
17 *556:45 0.000434939
18 *556:39 0.000204927
19 *556:37 0.000239718
20 *556:29 0.000361124
21 *556:27 0.000743171
22 *556:12 0.00041458
23 *556:8 0.000128893
24 *1102:A *635:12 3.7122e-06
25 *1214:B *1214:A 5.50106e-05
26 *1214:B *570:55 0.000221997
27 *1222:A2 *558:72 0.000285192
28 *1222:A2 *558:81 0.000175368
29 *556:8 *557:71 0.000187446
30 *556:12 *635:12 3.3577e-05
31 *556:27 *1287:B1 0.000180218
32 *556:27 *557:71 1.06693e-05
33 *556:29 *1287:B1 5.3304e-05
34 *556:37 *570:55 0.000133316
35 *556:45 *558:81 0.00023571
36 *556:117 *611:12 2.45215e-05
37 *556:117 *611:14 0.000438777
38 *1114:A3 *1222:A2 2.49781e-05
39 *1114:A3 *556:66 0.000162169
40 *1214:C *1214:B 0.000136079
41 *1214:C *1228:A 5.50049e-05
42 *1214:D *1214:B 0
43 *1215:B1 *556:58 1.24376e-05
44 *1215:B1 *556:60 5.3304e-05
45 *1216:C1 *556:39 9.75895e-05
46 *1216:C1 *556:45 1.36718e-05
47 *121:95 *556:117 1.14452e-05
48 *172:8 *1222:A2 4.24694e-06
49 *189:34 *556:27 1.01436e-05
50 *198:22 *1102:A 5.3304e-05
51 *198:22 *556:12 8.60475e-05
52 *198:22 *556:27 0.000135037
53 *198:28 *1228:A 0
54 *198:28 *556:27 4.04206e-05
55 *198:28 *556:29 5.60174e-05
56 *198:41 *556:37 6.08751e-05
57 *198:56 *556:58 8.17328e-05
58 *200:73 *1222:A2 3.55303e-05
59 *278:12 *556:58 4.05745e-05
60 *278:12 *556:60 2.64616e-05
61 *280:14 *556:39 0.000201667
62 *280:14 *556:45 2.75404e-05
63 *280:134 *556:117 0.000108681
64 *283:14 *556:39 5.3304e-05
65 *317:8 *556:117 0.000116314
66 *318:14 *1222:A2 0.000159947
67 *318:14 *556:45 0.000227732
68 *378:8 *556:8 4.99753e-06
69 *378:8 *556:27 5.94125e-05
70 *381:18 *556:117 0.000134196
71 *444:10 *556:8 1.05984e-05
72 *456:70 *556:8 0.000186511
73 *471:52 *1222:A2 0
74 *471:52 *556:66 0.00016124
*RES
1 *1510:X *556:8 40.9621 
2 *556:8 *556:12 16.0979 
3 *556:12 *1102:A 23.6214 
4 *556:12 *556:27 35.2821 
5 *556:27 *556:29 2.52714 
6 *556:29 *556:37 33.0036 
7 *556:37 *556:39 2.35107 
8 *556:39 *556:45 18.6354 
9 *556:45 *1222:A2 44.4836 
10 *556:45 *556:58 16.0979 
11 *556:58 *556:60 0.621429 
12 *556:60 *556:66 32.2579 
13 *556:66 *1114:A2 23 
14 *556:60 *1215:A1 23 
15 *556:58 *1211:A_N 23 
16 *556:39 *1216:A1 23 
17 *556:37 *1210:A 23 
18 *556:29 *556:93 0.497143 
19 *556:93 *1214:B 27.4536 
20 *556:93 *1228:A 24.1186 
21 *556:27 *556:117 36.8357 
22 *556:117 *1257:A2 23 
*END

*D_NET *557 0.0228893
*CONN
*I *1357:B1 I *D sky130_fd_sc_hd__o2bb2a_2
*I *1356:A2_N I *D sky130_fd_sc_hd__o2bb2a_2
*I *1132:A2 I *D sky130_fd_sc_hd__o21a_2
*I *1123:B I *D sky130_fd_sc_hd__nor2_2
*I *1306:B1 I *D sky130_fd_sc_hd__a211o_2
*I *1510:A I *D sky130_fd_sc_hd__clkdlybuf4s25_1
*I *1307:A1 I *D sky130_fd_sc_hd__a21oi_2
*I *1511:X O *D sky130_fd_sc_hd__clkdlybuf4s25_1
*CAP
1 *1357:B1 0
2 *1356:A2_N 0
3 *1132:A2 4.04467e-05
4 *1123:B 0.00035369
5 *1306:B1 2.12202e-05
6 *1510:A 0
7 *1307:A1 0.000634537
8 *1511:X 0.000259201
9 *557:71 0.000876002
10 *557:50 0.00225437
11 *557:42 0.00105894
12 *557:32 0.000988593
13 *557:28 0.00188984
14 *557:16 0.00194597
15 *557:10 0.000696787
16 *1123:B *588:54 5.62433e-06
17 *1123:B *610:51 2.9354e-05
18 *1307:A1 *1084:A1 6.06349e-05
19 *1307:A1 *1084:A2 2.47015e-05
20 *1307:A1 *1307:B1 5.12055e-06
21 *1307:A1 *581:46 5.24457e-05
22 *1307:A1 *581:54 0
23 *1307:A1 *581:67 2.25809e-05
24 *1307:A1 *585:28 0
25 *1307:A1 *585:45 0.000106017
26 *1307:A1 *594:40 3.06741e-05
27 *1307:A1 *615:63 4.67488e-05
28 *1307:A1 *634:10 0
29 *557:28 *1463:RESET_B 0
30 *557:28 *1467:RESET_B 0.00018082
31 *557:28 *624:75 0.000718506
32 *557:32 *560:92 0.00055562
33 *557:32 *602:73 3.07752e-05
34 *557:42 *1306:C1 0.000230562
35 *557:42 *610:51 8.11914e-06
36 *557:71 *1422:D 0
37 *557:71 *585:45 0.000402218
38 *557:71 *634:10 0
39 *645:CLK *557:71 7.86537e-05
40 *1103:B *557:28 0
41 *1144:C *557:28 2.05503e-05
42 *1157:B *557:28 0.000185472
43 *1290:S *1123:B 2.04774e-05
44 *1293:B *557:50 0.000138061
45 *1318:A *557:71 6.69637e-06
46 *1320:S *557:71 5.30448e-05
47 *1353:B *557:71 8.61037e-06
48 *1462:CLK *557:28 1.15883e-05
49 *1511:A *557:10 5.21127e-05
50 *1570:A *557:28 0
51 *53:10 *557:28 0.000171135
52 *54:8 *557:28 0
53 *121:8 *557:50 0.000180218
54 *121:37 *557:42 0.00034894
55 *121:37 *557:50 8.1796e-05
56 *156:18 *557:28 0.00171416
57 *156:18 *557:32 0.000251043
58 *183:14 *1307:A1 5.50106e-05
59 *189:34 *557:71 6.33511e-05
60 *189:40 *557:71 2.96154e-05
61 *192:8 *557:71 0.000110922
62 *200:8 *557:28 6.97069e-05
63 *200:14 *557:28 0.000133657
64 *200:26 *557:28 0.00070368
65 *200:26 *557:32 0.000862508
66 *200:34 *1306:B1 2.93104e-06
67 *200:34 *557:42 1.56665e-05
68 *200:34 *557:50 6.9805e-05
69 *200:50 *1307:A1 9.41704e-05
70 *200:50 *557:50 9.5877e-05
71 *212:10 *557:71 7.75329e-06
72 *218:20 *1123:B 3.74475e-05
73 *225:26 *1132:A2 1.05887e-05
74 *227:29 *1132:A2 4.60157e-05
75 *229:10 *557:42 0.000136738
76 *233:8 *557:42 4.55775e-05
77 *239:25 *557:28 0
78 *244:48 *557:28 0.000180097
79 *348:22 *1123:B 0.000238631
80 *348:22 *557:42 4.56316e-05
81 *362:8 *557:50 0.000321901
82 *362:38 *557:50 4.21048e-05
83 *373:8 *557:50 8.66936e-05
84 *374:8 *1307:A1 2.61151e-05
85 *375:8 *1307:A1 7.89883e-05
86 *375:8 *557:71 0.000283074
87 *377:8 *1307:A1 3.10276e-05
88 *378:8 *557:71 0
89 *412:12 *557:10 2.04774e-05
90 *412:12 *557:16 0.000480839
91 *414:10 *557:10 5.561e-05
92 *444:10 *557:71 0.000310619
93 *446:50 *557:10 0.000223704
94 *456:56 *557:71 4.67488e-05
95 *478:16 *557:28 0.000296407
96 *478:28 *1123:B 0
97 *478:28 *557:28 4.9684e-05
98 *508:40 *557:71 0.00021677
99 *508:48 *557:71 0.000135037
100 *512:24 *557:10 6.7177e-06
101 *517:70 *1132:A2 7.06451e-05
102 *526:10 *557:16 0
103 *556:8 *557:71 0.000187446
104 *556:27 *557:71 1.06693e-05
*RES
1 *1511:X *557:10 42.785 
2 *557:10 *557:16 21.815 
3 *557:16 *557:28 36.9705 
4 *557:28 *557:32 9.68747 
5 *557:32 *557:42 23.1304 
6 *557:42 *557:50 28.8786 
7 *557:50 *1307:A1 48.8336 
8 *557:50 *557:71 34.3886 
9 *557:71 *1510:A 23 
10 *557:42 *1306:B1 23.4971 
11 *557:32 *1123:B 43.6446 
12 *557:28 *1132:A2 47.0254 
13 *557:16 *1356:A2_N 23 
14 *557:10 *1357:B1 38 
*END

*D_NET *558 0.0185063
*CONN
*I *1061:A I *D sky130_fd_sc_hd__nor2_2
*I *1125:A I *D sky130_fd_sc_hd__or2_2
*I *1222:A1 I *D sky130_fd_sc_hd__a31o_2
*I *1214:A I *D sky130_fd_sc_hd__nand4_2
*I *1095:A I *D sky130_fd_sc_hd__or2_2
*I *1213:A I *D sky130_fd_sc_hd__nand2_2
*I *1094:A I *D sky130_fd_sc_hd__nor2_2
*I *1006:A I *D sky130_fd_sc_hd__inv_2
*I *1307:B1 I *D sky130_fd_sc_hd__a21oi_2
*I *1062:A I *D sky130_fd_sc_hd__or2_2
*I *1512:X O *D sky130_fd_sc_hd__clkdlybuf4s25_1
*CAP
1 *1061:A 0
2 *1125:A 0
3 *1222:A1 0
4 *1214:A 0.000101706
5 *1095:A 0.000238701
6 *1213:A 3.03571e-05
7 *1094:A 0
8 *1006:A 5.37157e-05
9 *1307:B1 9.73177e-05
10 *1062:A 0
11 *1512:X 0.00133853
12 *558:138 0.000245178
13 *558:127 0.000301654
14 *558:87 0.000764499
15 *558:81 0.000894382
16 *558:72 0.000462643
17 *558:68 0.000605597
18 *558:53 0.00128342
19 *558:32 0.00109801
20 *558:30 0.000574958
21 *558:28 0.00132676
22 *558:10 0.000319084
23 *1006:A *596:85 0
24 *1006:A *611:12 1.74874e-06
25 *1307:B1 *594:40 0.000140927
26 *558:10 *1129:A 4.9662e-05
27 *558:28 *594:52 0.000316039
28 *558:30 *594:40 5.3304e-05
29 *558:30 *594:52 9.41704e-05
30 *558:32 *1127:A 1.03836e-05
31 *558:32 *589:35 2.93845e-05
32 *558:32 *590:33 1.71761e-05
33 *558:32 *594:40 0.000648819
34 *558:32 *617:100 8.06804e-06
35 *558:53 *1578:addr[1] 0.000958831
36 *558:53 *602:73 0.00114466
37 *558:68 *611:12 3.22879e-05
38 *558:127 *594:52 3.33082e-05
39 *558:138 *617:112 0
40 *1060:B1 *558:10 4.15283e-06
41 *1074:A1 *558:68 6.39489e-06
42 *1074:A2 *558:68 2.62931e-05
43 *1074:C1 *558:68 4.5051e-05
44 *1213:B *1095:A 0
45 *1214:B *1214:A 5.50106e-05
46 *1214:C *1214:A 5.50106e-05
47 *1222:A2 *558:72 0.000285192
48 *1222:A2 *558:81 0.000175368
49 *1222:B1 *558:68 9.84851e-05
50 *1307:A1 *1307:B1 5.12055e-06
51 *1353:A *1095:A 0
52 *121:95 *558:68 2.31797e-05
53 *158:10 *558:10 2.58035e-05
54 *160:78 *558:10 0.000288565
55 *164:16 *558:32 0.000263814
56 *165:23 *558:10 0.000278853
57 *189:40 *1095:A 0.000308952
58 *189:44 *1095:A 5.3304e-05
59 *189:44 *1213:A 4.5051e-05
60 *189:93 *558:72 6.07611e-06
61 *189:93 *558:81 7.44778e-05
62 *191:8 *558:72 0.000104382
63 *197:61 *558:72 0
64 *197:61 *558:81 0
65 *197:76 *1214:A 6.08751e-05
66 *197:76 *558:81 8.32157e-05
67 *200:26 *558:127 9.28078e-06
68 *200:50 *558:53 0
69 *221:8 *558:127 0.000126433
70 *221:8 *558:138 5.79489e-05
71 *221:12 *558:30 1.72202e-05
72 *221:12 *558:32 7.53384e-06
73 *221:20 *558:32 2.93845e-05
74 *221:20 *558:138 0
75 *222:10 *558:28 9.84851e-05
76 *222:10 *558:30 5.3304e-05
77 *280:14 *1213:A 5.50106e-05
78 *280:14 *558:87 0.00051329
79 *283:14 *558:81 4.67998e-05
80 *318:14 *1214:A 5.87296e-05
81 *318:14 *558:81 1.96391e-05
82 *349:12 *558:68 7.74898e-06
83 *350:22 *1307:B1 0.000100061
84 *350:32 *558:53 8.46253e-05
85 *351:10 *558:127 5.23051e-05
86 *363:10 *1307:B1 0.000154454
87 *363:10 *558:32 0.000127404
88 *368:6 *558:28 0.000472823
89 *371:18 *558:53 0.000285083
90 *381:18 *1006:A 7.07958e-05
91 *481:70 *558:127 0
92 *481:93 *558:10 2.29936e-05
93 *508:61 *1095:A 5.50106e-05
94 *516:72 *1095:A 9.62764e-05
95 *516:72 *558:87 0
96 *556:45 *558:81 0.00023571
*RES
1 *1512:X *558:10 44.1729 
2 *558:10 *1062:A 38 
3 *1512:X *558:28 39.0329 
4 *558:28 *558:30 1.57429 
5 *558:30 *558:32 7.29143 
6 *558:32 *1307:B1 26.5214 
7 *558:32 *558:53 37.4832 
8 *558:53 *1006:A 39.0254 
9 *558:53 *558:68 20.8621 
10 *558:68 *558:72 19.0186 
11 *558:72 *1094:A 38 
12 *558:72 *558:81 6.48357 
13 *558:81 *558:87 22.1879 
14 *558:87 *1213:A 24.0979 
15 *558:87 *1095:A 28.9036 
16 *558:81 *1214:A 40.5271 
17 *558:68 *1222:A1 23 
18 *558:30 *558:127 34.7229 
19 *558:127 *1125:A 23 
20 *558:28 *558:138 33.3143 
21 *558:138 *1061:A 23 
*END

*D_NET *559 0.0106224
*CONN
*I *1039:A I *D sky130_fd_sc_hd__or3_2
*I *1168:A I *D sky130_fd_sc_hd__or2_2
*I *1163:A1 I *D sky130_fd_sc_hd__a22o_2
*I *1054:A1 I *D sky130_fd_sc_hd__o21a_2
*I *1149:A I *D sky130_fd_sc_hd__nand2_2
*I *1049:A I *D sky130_fd_sc_hd__or3_2
*I *1020:B I *D sky130_fd_sc_hd__or3_2
*I *1038:A1 I *D sky130_fd_sc_hd__o21ai_2
*I *1021:A1 I *D sky130_fd_sc_hd__o21ai_2
*I *1047:A1 I *D sky130_fd_sc_hd__o21ai_2
*I *1513:X O *D sky130_fd_sc_hd__clkdlybuf4s25_1
*CAP
1 *1039:A 0.000165634
2 *1168:A 0.000154875
3 *1163:A1 0
4 *1054:A1 4.24271e-05
5 *1149:A 1.09074e-05
6 *1049:A 0
7 *1020:B 0.000315061
8 *1038:A1 0
9 *1021:A1 0.000345594
10 *1047:A1 2.89594e-05
11 *1513:X 0.000136766
12 *559:124 0.000247321
13 *559:103 0.000604894
14 *559:86 0.000670363
15 *559:73 0.000379513
16 *559:64 0.000190689
17 *559:37 0.000494194
18 *559:33 0.00159758
19 *559:12 0.00123181
20 *559:8 0.000287386
21 *1021:A1 *1039:C 0
22 *1021:A1 *613:66 0.000108101
23 *1039:A *1021:B1 9.84851e-05
24 *1039:A *1039:C 2.4754e-05
25 *1047:A1 *560:43 1.94693e-05
26 *559:12 *1047:B1 6.85548e-05
27 *559:12 *1049:C 1.86493e-05
28 *559:33 *1043:A1 0.000166973
29 *559:33 *560:8 0.000486246
30 *559:33 *560:43 0.00027663
31 *559:37 *1039:C 0
32 *559:37 *614:74 0
33 *559:124 *613:72 5.43589e-05
34 *1049:B *559:12 1.98354e-05
35 *1051:B *559:8 4.77164e-06
36 *1051:B *559:12 1.98354e-05
37 *1057:B *559:33 2.81138e-05
38 *1149:B *1149:A 3.7681e-05
39 *1149:B *559:86 0.000135037
40 *1168:B *1168:A 0.000164624
41 *1458:CLK *1020:B 2.64616e-05
42 *1458:CLK *559:37 0
43 *55:12 *559:33 8.36165e-05
44 *56:10 *1168:A 9.77241e-05
45 *136:8 *1039:A 1.76557e-05
46 *146:10 *1039:A 0
47 *148:32 *1021:A1 0
48 *149:8 *559:33 0.000347125
49 *149:37 *1021:A1 0
50 *149:37 *559:37 0
51 *152:35 *1047:A1 6.17437e-06
52 *152:35 *559:33 4.05745e-05
53 *154:8 *559:12 3.73022e-05
54 *156:18 *559:8 0
55 *243:44 *1168:A 5.73733e-05
56 *243:44 *559:103 5.27444e-05
57 *250:12 *1054:A1 5.79438e-05
58 *250:12 *559:103 0.00047003
59 *405:20 *1054:A1 1.44897e-05
60 *405:20 *1168:A 4.79641e-05
61 *405:20 *559:103 0.000118594
62 *452:8 *559:124 0
63 *453:28 *1021:A1 0
64 *454:10 *1021:A1 0.000272383
65 *475:10 *559:37 0
66 *479:44 *559:33 0
67 *480:45 *559:73 0.000139754
68 *480:45 *559:86 1.03955e-05
69 *481:30 *1047:A1 7.53384e-06
70 *481:30 *559:12 8.04879e-05
71 *482:20 *559:33 0
72 *483:20 *559:8 0
*RES
1 *1513:X *559:8 39.9057 
2 *559:8 *559:12 17.9621 
3 *559:12 *1047:A1 23.6214 
4 *559:12 *559:33 48.3321 
5 *559:33 *559:37 18.6664 
6 *559:37 *1021:A1 43.9657 
7 *559:37 *1038:A1 38 
8 *559:33 *1020:B 26.9564 
9 *559:8 *559:64 15 
10 *559:64 *1049:A 23 
11 *559:64 *559:73 3.50071 
12 *559:73 *1149:A 23.4971 
13 *559:73 *559:86 17.5479 
14 *559:86 *1054:A1 38.8493 
15 *559:86 *559:103 23.4307 
16 *559:103 *1163:A1 23 
17 *559:103 *1168:A 26.48 
18 *1021:A1 *559:124 39.2014 
19 *559:124 *1039:A 40.9 
*END

*D_NET *560 0.0137412
*CONN
*I *1132:A1 I *D sky130_fd_sc_hd__o21a_2
*I *1512:A I *D sky130_fd_sc_hd__clkdlybuf4s25_1
*I *1306:C1 I *D sky130_fd_sc_hd__a211o_2
*I *1513:A I *D sky130_fd_sc_hd__clkdlybuf4s25_1
*I *1044:A I *D sky130_fd_sc_hd__or3_2
*I *1043:A1 I *D sky130_fd_sc_hd__o21ai_2
*I *1514:X O *D sky130_fd_sc_hd__clkdlybuf4s25_1
*CAP
1 *1132:A1 0
2 *1512:A 0
3 *1306:C1 0.000102395
4 *1513:A 0
5 *1044:A 0
6 *1043:A1 0.0006343
7 *1514:X 0.000162283
8 *560:109 0.00029817
9 *560:92 0.000682426
10 *560:74 0.000924934
11 *560:70 0.00078789
12 *560:45 0.00108874
13 *560:43 0.000888683
14 *560:23 0.000282238
15 *560:8 0.000537719
16 *560:23 *615:103 0.000421344
17 *560:92 *602:73 0.000788533
18 *560:92 *609:41 4.60157e-05
19 *560:109 *1129:A 2.93845e-05
20 *1043:A2 *560:43 5.01186e-05
21 *1046:B *560:23 2.3312e-05
22 *1047:A1 *560:43 1.94693e-05
23 *1131:C *560:70 5.67058e-05
24 *1133:A2 *560:70 7.53384e-06
25 *1133:A2 *560:74 1.92282e-05
26 *1133:A2 *560:92 0.000130355
27 *1133:A3 *560:92 5.3304e-05
28 *1133:B1 *560:92 5.50049e-05
29 *1148:A *560:70 6.91178e-05
30 *1148:B *560:70 0.000371239
31 *1169:A *560:70 1.98161e-05
32 *1169:B *560:70 0.000188594
33 *1312:B *560:43 0.00021677
34 *1514:A *560:8 0.00014196
35 *148:21 *560:23 7.73877e-05
36 *149:8 *560:43 7.40718e-05
37 *149:20 *1043:A1 0.000189371
38 *149:37 *1043:A1 9.634e-05
39 *149:37 *560:8 4.74278e-05
40 *150:10 *560:23 0.000116251
41 *151:10 *560:23 1.34812e-05
42 *151:39 *560:45 5.43589e-05
43 *156:37 *560:23 1.66113e-05
44 *159:10 *560:70 6.53942e-05
45 *161:10 *560:43 0.000183457
46 *200:26 *560:92 0.000113673
47 *200:30 *1306:C1 5.50049e-05
48 *200:34 *1306:C1 5.50106e-05
49 *220:10 *560:92 4.30894e-05
50 *224:40 *560:70 2.02872e-05
51 *224:40 *560:74 2.34279e-05
52 *224:40 *560:109 7.89973e-05
53 *225:26 *560:109 3.1414e-05
54 *226:8 *560:109 0
55 *227:6 *560:70 0.0001164
56 *228:6 *560:92 8.60475e-05
57 *233:8 *1306:C1 0.00013961
58 *234:8 *560:92 1.81615e-05
59 *240:21 *560:45 0.000169914
60 *240:21 *560:70 2.23143e-05
61 *244:8 *560:45 0.00017336
62 *244:29 *560:45 5.64582e-05
63 *244:29 *560:70 4.59051e-05
64 *250:12 *560:45 9.68453e-05
65 *368:6 *560:109 5.3304e-05
66 *454:10 *560:23 0.00010018
67 *476:10 *560:23 9.28078e-06
68 *480:57 *560:70 0.000109194
69 *481:30 *560:43 2.81406e-06
70 *517:70 *560:109 0.000372793
71 *557:32 *560:92 0.00055562
72 *557:42 *1306:C1 0.000230562
73 *559:33 *1043:A1 0.000166973
74 *559:33 *560:8 0.000486246
75 *559:33 *560:43 0.00027663
*RES
1 *1514:X *560:8 28.8829 
2 *560:8 *1043:A1 26.48 
3 *560:8 *560:23 37.2293 
4 *560:23 *1044:A 23 
5 *1043:A1 *560:43 47.86 
6 *560:43 *560:45 6.48357 
7 *560:45 *1513:A 38 
8 *560:45 *560:70 30.66 
9 *560:70 *560:74 1.11857 
10 *560:74 *560:92 37.9843 
11 *560:92 *1306:C1 41.9564 
12 *560:74 *560:109 36.0486 
13 *560:109 *1512:A 23 
14 *560:70 *1132:A1 23 
*END

*D_NET *561 0.00696907
*CONN
*I *1073:B I *D sky130_fd_sc_hd__nand2_2
*I *1294:B I *D sky130_fd_sc_hd__or4_2
*I *1018:A I *D sky130_fd_sc_hd__inv_2
*I *1096:B1 I *D sky130_fd_sc_hd__o22a_2
*I *1515:X O *D sky130_fd_sc_hd__clkdlybuf4s25_1
*CAP
1 *1073:B 0
2 *1294:B 0.000226821
3 *1018:A 0.00036002
4 *1096:B1 0.000280687
5 *1515:X 0
6 *561:37 0.00058684
7 *561:35 0.00121388
8 *561:4 0.00149457
9 *1018:A *614:36 3.22879e-05
10 *1018:A *630:84 0.000205064
11 *1018:A *630:108 0.000179598
12 *1018:A *631:67 1.74874e-06
13 *1096:B1 *584:70 0.000223554
14 *1096:B1 *617:61 0.000225576
15 *1096:B1 *631:54 0.00012907
16 *1294:B *630:84 0.000141087
17 *1294:B *630:108 1.05441e-05
18 *561:35 *596:79 0.000247141
19 *561:35 *617:61 0.000240248
20 *1090:B2 *561:35 8.48502e-06
21 *1096:A1 *1096:B1 4.79544e-05
22 *1180:B *561:35 0.000143535
23 *1294:A *1294:B 3.34247e-05
24 *1324:B *1018:A 0
25 *1420:CLK *561:35 6.83927e-05
26 *1420:GATE *561:35 0.000186051
27 *123:52 *561:35 0.000272377
28 *132:10 *1294:B 5.3304e-05
29 *133:6 *1018:A 1.94693e-05
30 *133:19 *1018:A 5.92012e-05
31 *174:8 *561:35 4.39488e-05
32 *175:8 *1294:B 7.89883e-05
33 *260:12 *1018:A 0
34 *380:10 *1018:A 0
35 *456:212 *1096:B1 2.56863e-05
36 *473:83 *1018:A 0
37 *474:43 *561:35 0.000129522
*RES
1 *1515:X *561:4 23 
2 *561:4 *1096:B1 30.2914 
3 *561:4 *561:35 20.4036 
4 *561:35 *561:37 15 
5 *561:37 *1018:A 44.4007 
6 *561:37 *1294:B 41.8321 
7 *561:35 *1073:B 23 
*END

*D_NET *562 0.00919306
*CONN
*I *1075:A_N I *D sky130_fd_sc_hd__nand2b_2
*I *1071:A I *D sky130_fd_sc_hd__or2_2
*I *1089:B I *D sky130_fd_sc_hd__xor2_2
*I *1078:A I *D sky130_fd_sc_hd__nand2_2
*I *1516:X O *D sky130_fd_sc_hd__clkdlybuf4s25_1
*CAP
1 *1075:A_N 0
2 *1071:A 9.55835e-05
3 *1089:B 0.000349971
4 *1078:A 0.000241974
5 *1516:X 0
6 *562:51 0.000991494
7 *562:36 0.00052698
8 *562:28 0.00164773
9 *562:6 0.000760235
10 *562:4 0.000393129
11 *1071:A *1071:B 5.3304e-05
12 *1071:A *564:37 2.32004e-05
13 *1078:A *564:37 5.49509e-05
14 *1078:A *629:43 2.4754e-05
15 *562:6 *564:37 6.12265e-05
16 *562:28 *596:45 1.24585e-05
17 *562:36 *564:10 0.00019252
18 *562:36 *599:56 7.65282e-05
19 *562:51 *1518:A 5.91754e-05
20 *562:51 *599:18 8.40621e-05
21 *1089:A *1089:B 0
22 *1096:A1 *1071:A 0.000136451
23 *1250:A *562:51 0.000178357
24 *1255:C *562:51 0.000218471
25 *1281:A *1089:B 0
26 *1283:B *562:36 2.02872e-05
27 *1283:C *562:36 0.000123239
28 *1436:CLK *562:51 1.01436e-05
29 *72:16 *562:51 3.91934e-05
30 *75:8 *1089:B 0.000121976
31 *75:8 *562:28 1.43063e-05
32 *176:10 *562:51 5.3304e-05
33 *177:12 *562:51 0.000807687
34 *179:8 *1078:A 0.00010018
35 *258:44 *562:28 0.000106986
36 *285:36 *562:51 8.30566e-06
37 *306:32 *562:36 0.000219383
38 *307:10 *562:28 0.000248007
39 *307:10 *562:51 0.000389129
40 *314:39 *562:51 4.79458e-06
41 *315:10 *562:51 1.24734e-05
42 *330:38 *562:36 5.50106e-05
43 *335:24 *562:51 0
44 *336:17 *562:36 1.40958e-05
45 *449:26 *562:36 5.3304e-05
46 *449:30 *562:36 0.000194751
47 *502:10 *562:51 0.000413946
*RES
1 *1516:X *562:4 23 
2 *562:4 *562:6 2.05071 
3 *562:6 *1078:A 26.8529 
4 *562:6 *1089:B 35.075 
5 *562:4 *562:28 18.6664 
6 *562:28 *562:36 38.8243 
7 *562:36 *1071:A 40.0507 
8 *562:28 *562:51 34.9271 
9 *562:51 *1075:A_N 23 
*END

*D_NET *563 0.00980824
*CONN
*I *1208:B1 I *D sky130_fd_sc_hd__a31o_2
*I *1076:B I *D sky130_fd_sc_hd__nand2b_2
*I *1517:X O *D sky130_fd_sc_hd__clkdlybuf4s25_1
*CAP
1 *1208:B1 0
2 *1076:B 0
3 *1517:X 0.00107724
4 *563:42 0.00101112
5 *563:30 0.00163757
6 *563:12 0.000605649
7 *563:8 0.00105645
8 *563:12 *1518:A 9.28078e-06
9 *563:12 *1519:A 0.000147704
10 *563:12 *566:10 0
11 *563:12 *566:48 0.000784712
12 *563:12 *568:28 8.04817e-05
13 *563:12 *628:30 6.77278e-05
14 *563:42 *566:26 1.54642e-05
15 *563:42 *574:31 0.000156351
16 *563:42 *574:69 0.000308819
17 *563:42 *627:22 0.000168873
18 *1175:A *563:8 4.02603e-05
19 *1175:B *563:30 0
20 *1183:A *563:30 4.06172e-06
21 *1258:A *563:8 1.24376e-05
22 *1432:CLK *563:42 0.000147062
23 *116:8 *563:30 0.000139647
24 *130:12 *563:42 1.83327e-05
25 *131:23 *563:42 5.3304e-05
26 *144:26 *563:42 3.06929e-05
27 *177:12 *563:12 0.000219335
28 *285:36 *563:12 0.000172071
29 *388:10 *563:30 0.000435854
30 *463:14 *563:8 0.000433246
31 *472:16 *563:30 1.91026e-05
32 *473:35 *563:30 4.26341e-05
33 *474:18 *563:42 0.000912752
*RES
1 *1517:X *563:8 44.3386 
2 *563:8 *563:12 28.1743 
3 *563:12 *1076:B 23 
4 *1517:X *563:30 48.0775 
5 *563:30 *563:42 36.7645 
6 *563:42 *1208:B1 23 
*END

*D_NET *564 0.00650018
*CONN
*I *1071:B I *D sky130_fd_sc_hd__or2_2
*I *1078:B I *D sky130_fd_sc_hd__nand2_2
*I *1105:B I *D sky130_fd_sc_hd__nand2_2
*I *1104:B I *D sky130_fd_sc_hd__or2_2
*I *1518:X O *D sky130_fd_sc_hd__clkdlybuf4s25_1
*CAP
1 *1071:B 3.54693e-05
2 *1078:B 0
3 *1105:B 0
4 *1104:B 0.000419245
5 *1518:X 0.000523381
6 *564:45 0.000192542
7 *564:37 0.000945462
8 *564:23 0.000788389
9 *564:10 0.000942625
10 *564:37 *629:43 9.41704e-05
11 *1071:A *1071:B 5.3304e-05
12 *1071:A *564:37 2.32004e-05
13 *1078:A *564:37 5.49509e-05
14 *1089:A *564:45 7.48656e-05
15 *1096:A1 *564:37 7.44161e-06
16 *1282:A1 *564:37 2.25809e-05
17 *1282:A2 *564:37 9.41704e-05
18 *76:10 *1104:B 0.000150821
19 *76:10 *564:10 0.000169981
20 *134:10 *564:45 0.000124066
21 *134:14 *564:45 2.64616e-05
22 *134:31 *564:45 4.80045e-05
23 *179:8 *564:37 2.32004e-05
24 *186:12 *1104:B 5.67058e-05
25 *201:14 *1104:B 4.01356e-05
26 *201:14 *564:10 8.23408e-05
27 *258:66 *564:37 0.000436666
28 *258:66 *564:45 4.68377e-05
29 *284:82 *564:10 0.000221997
30 *306:40 *564:37 0.000156604
31 *307:10 *564:37 5.3304e-05
32 *330:38 *564:10 5.50106e-05
33 *338:14 *1104:B 5.50106e-05
34 *340:10 *564:37 5.50049e-05
35 *449:30 *1104:B 5.91692e-05
36 *449:30 *564:10 1.41324e-05
37 *449:190 *564:10 5.76197e-05
38 *456:214 *564:37 2.58998e-05
39 *505:38 *564:10 1.56665e-05
40 *562:6 *564:37 6.12265e-05
41 *562:36 *564:10 0.00019252
*RES
1 *1518:X *564:10 46.9071 
2 *564:10 *1104:B 44.4007 
3 *564:10 *564:23 15 
4 *564:23 *564:37 14.21 
5 *564:37 *564:45 33.7079 
6 *564:45 *1105:B 23 
7 *564:37 *1078:B 23 
8 *564:23 *1071:B 23.6214 
*END

*D_NET *565 0.00218096
*CONN
*I *1099:A I *D sky130_fd_sc_hd__xor2_2
*I *1574:X O *D sky130_fd_sc_hd__clkdlybuf4s25_1
*CAP
1 *1099:A 0.000149777
2 *1574:X 0.000240418
3 *565:8 0.000390195
4 *565:8 *606:64 0.000628079
5 *97:12 *565:8 0.000628248
6 *512:24 *1099:A 0.00014424
*RES
1 *1574:X *565:8 46.5964 
2 *565:8 *1099:A 41.0036 
*END

*D_NET *566 0.0126511
*CONN
*I *1076:A_N I *D sky130_fd_sc_hd__nand2b_2
*I *1518:A I *D sky130_fd_sc_hd__clkdlybuf4s25_1
*I *1209:A2 I *D sky130_fd_sc_hd__o31ai_2
*I *1208:A2 I *D sky130_fd_sc_hd__a31o_2
*I *1519:X O *D sky130_fd_sc_hd__clkdlybuf4s25_1
*CAP
1 *1076:A_N 5.92212e-05
2 *1518:A 0.000318061
3 *1209:A2 2.27708e-05
4 *1208:A2 0
5 *1519:X 0.000646146
6 *566:48 0.000980463
7 *566:26 0.00152321
8 *566:14 0.00216282
9 *566:12 0.00122003
10 *566:10 0.000646146
11 *1209:A2 *574:23 3.87221e-06
12 *566:10 *1519:A 0.000116554
13 *566:10 *1523:A 9.81784e-05
14 *566:10 *568:28 5.63909e-05
15 *566:10 *568:36 2.13733e-05
16 *566:10 *572:31 0.00016124
17 *566:14 *628:30 0.000496332
18 *566:26 *628:30 0.000476571
19 *1274:A *1518:A 3.22879e-05
20 *1432:CLK *566:26 1.62361e-05
21 *65:10 *566:26 0
22 *130:32 *566:26 0.000461146
23 *144:26 *566:26 0.000133371
24 *177:10 *1076:A_N 1.24376e-05
25 *179:18 *566:10 0.00016
26 *179:47 *566:10 0.000144515
27 *179:66 *566:14 2.81221e-05
28 *179:66 *566:48 0.000133579
29 *259:40 *566:10 2.2514e-05
30 *285:36 *1518:A 1.88944e-05
31 *307:18 *1076:A_N 9.41704e-05
32 *316:8 *566:48 0.000101093
33 *318:32 *566:14 0.000316994
34 *318:32 *566:48 8.36114e-05
35 *332:8 *1518:A 5.50106e-05
36 *335:24 *1518:A 0.000127267
37 *335:24 *566:48 0.000507312
38 *460:34 *566:14 0.000159505
39 *460:34 *566:26 0.00016502
40 *562:51 *1518:A 5.91754e-05
41 *563:12 *1518:A 9.28078e-06
42 *563:12 *566:10 0
43 *563:12 *566:48 0.000784712
44 *563:42 *566:26 1.54642e-05
*RES
1 *1519:X *566:10 48.8439 
2 *566:10 *566:12 8 
3 *566:12 *566:14 2.03093 
4 *566:14 *566:26 33.7447 
5 *566:26 *1208:A2 23 
6 *566:14 *1209:A2 46.3211 
7 *566:12 *566:48 19.9032 
8 *566:48 *1518:A 43.1786 
9 *566:48 *1076:A_N 39.0979 
*END

*D_NET *567 0.00653926
*CONN
*I *1107:B I *D sky130_fd_sc_hd__nand2_2
*I *1106:B I *D sky130_fd_sc_hd__or2_2
*I *1207:A2 I *D sky130_fd_sc_hd__a22o_2
*I *1206:A2 I *D sky130_fd_sc_hd__o22a_2
*I *1520:X O *D sky130_fd_sc_hd__clkdlybuf4s25_1
*CAP
1 *1107:B 0.000289003
2 *1106:B 2.77218e-05
3 *1207:A2 9.73172e-05
4 *1206:A2 7.58788e-05
5 *1520:X 0.000843343
6 *567:41 0.000527793
7 *567:37 0.000962726
8 *567:8 0.00026488
9 *1206:A2 *571:56 0.000159393
10 *1207:A2 *569:26 8.87917e-06
11 *567:8 *571:56 0.000124075
12 *567:37 *575:37 9.41704e-05
13 uio_oe[6] *1107:B 0.000380676
14 uio_oe[6] *567:41 0.000373498
15 *1452:CLK *567:37 0.000449883
16 *130:32 *1207:A2 2.02872e-05
17 *130:32 *567:8 7.89973e-05
18 *204:24 *1107:B 0.000339922
19 *204:24 *567:41 0.000374325
20 *273:18 *1207:A2 5.3304e-05
21 *274:10 *1206:A2 0.000159402
22 *275:14 *1207:A2 4.37509e-06
23 *310:14 *567:37 5.50106e-05
24 *310:22 *567:37 9.84794e-05
25 *314:39 *567:37 4.5051e-05
26 *334:8 *567:8 1.50638e-05
27 *388:10 *1106:B 2.64616e-05
28 *389:10 *1107:B 1.75427e-05
29 *463:14 *1106:B 5.3304e-05
30 *502:10 *567:37 0.000136743
31 *502:34 *567:37 0.000381751
*RES
1 *1520:X *567:8 39.9057 
2 *567:8 *1206:A2 40.2579 
3 *567:8 *1207:A2 39.6002 
4 *1520:X *567:37 36.5264 
5 *567:37 *567:41 20.4271 
6 *567:41 *1106:B 38.6214 
7 *567:41 *1107:B 44.4007 
*END

*D_NET *568 0.00862325
*CONN
*I *1329:B1_N I *D sky130_fd_sc_hd__o21ba_2
*I *1342:A1 I *D sky130_fd_sc_hd__a31o_2
*I *1520:A I *D sky130_fd_sc_hd__clkdlybuf4s25_1
*I *1521:X O *D sky130_fd_sc_hd__clkdlybuf4s25_1
*CAP
1 *1329:B1_N 0.000221027
2 *1342:A1 0
3 *1520:A 0
4 *1521:X 0.000706044
5 *568:46 0.000131377
6 *568:36 0.000949575
7 *568:28 0.00148998
8 *568:26 0.000862112
9 *568:10 0.000294686
10 *568:10 *599:33 9.62666e-05
11 *568:10 *629:28 3.56382e-05
12 *568:26 *569:26 0.000221997
13 *568:28 *1519:A 0.000100862
14 *568:28 *1523:A 0.000236586
15 *568:28 *572:31 0
16 *568:36 *1519:A 4.67488e-05
17 *1255:A_N *568:26 2.58101e-05
18 *1255:C *568:26 0.000244522
19 *1328:A0 *1329:B1_N 0
20 *1329:A2 *1329:B1_N 0
21 *1337:A0 *568:36 0.000317969
22 *37:14 *568:46 7.60871e-06
23 *37:26 *568:46 8.51378e-05
24 *256:18 *1329:B1_N 0.000101514
25 *320:12 *568:10 1.77248e-05
26 *333:31 *568:10 2.73782e-05
27 *384:8 *568:36 0.000181125
28 *385:8 *1329:B1_N 0.000164401
29 *386:10 *568:36 0.000182826
30 *392:10 *568:46 0.000151657
31 *393:10 *568:36 0.000221992
32 *457:39 *568:36 4.65096e-05
33 *457:49 *568:36 0.000385369
34 *462:50 *1329:B1_N 0.00012414
35 *462:50 *568:28 0.00022945
36 *464:25 *568:36 0.000473244
37 *465:26 *568:36 8.37293e-05
38 *563:12 *568:28 8.04817e-05
39 *566:10 *568:28 5.63909e-05
40 *566:10 *568:36 2.13733e-05
*RES
1 *1521:X *568:10 42.3086 
2 *568:10 *1520:A 38 
3 *1521:X *568:26 43.8621 
4 *568:26 *568:28 8.24429 
5 *568:28 *568:36 35.3207 
6 *568:36 *568:46 33.0243 
7 *568:46 *1342:A1 23 
8 *568:28 *1329:B1_N 43.075 
*END

*D_NET *569 0.0166851
*CONN
*I *1077:A I *D sky130_fd_sc_hd__or3_2
*I *1072:A I *D sky130_fd_sc_hd__nor2_2
*I *1521:A I *D sky130_fd_sc_hd__clkdlybuf4s25_1
*I *1522:X O *D sky130_fd_sc_hd__clkdlybuf4s25_1
*CAP
1 *1077:A 0.000421323
2 *1072:A 1.31598e-05
3 *1521:A 0
4 *1522:X 0
5 *569:81 0.00138126
6 *569:67 0.00209623
7 *569:63 0.000509761
8 *569:53 0.000546161
9 *569:45 0.00120022
10 *569:26 0.00109675
11 *569:4 0.00195377
12 *1072:A *596:79 3.56477e-05
13 *1077:A *575:65 2.96154e-05
14 *569:26 *1522:A 0.000301116
15 *569:26 *571:56 0.000149854
16 *569:26 *575:37 4.30894e-05
17 *569:26 *599:33 0.000209405
18 *569:45 *1112:B 9.62764e-05
19 *569:45 *1522:A 5.61255e-06
20 *569:45 *573:18 0.000137368
21 *569:63 *602:102 5.77508e-05
22 *569:63 *602:116 0.000100069
23 *1035:A *569:81 5.35571e-05
24 *1111:A *569:63 2.76611e-06
25 *1113:A1 *569:45 6.24251e-05
26 *1180:B *1072:A 5.73288e-05
27 *1207:A2 *569:26 8.87917e-06
28 *1229:C *569:81 5.95642e-05
29 *1236:C_N *569:81 0.000513807
30 *1239:C *569:67 0
31 *1240:A1 *1077:A 1.4471e-05
32 *1240:B1 *1077:A 2.74987e-05
33 *1240:B1 *569:67 0
34 *1240:B1 *569:81 4.15847e-05
35 *1241:C *569:63 9.65021e-05
36 *1242:A_N *569:63 1.53521e-05
37 *1243:A *569:67 8.30566e-06
38 *1245:A1 *569:63 0.000223906
39 *1245:A2 *569:63 2.75733e-06
40 *1255:A_N *569:26 0.000139357
41 *22:10 *1077:A 0
42 *22:10 *569:67 1.43266e-05
43 *70:10 *569:67 6.35871e-05
44 *122:8 *569:81 1.09111e-05
45 *130:32 *569:26 1.75562e-05
46 *141:28 *569:45 4.96717e-05
47 *143:24 *569:67 2.11157e-05
48 *173:28 *569:81 1.27408e-05
49 *178:8 *1077:A 0
50 *179:66 *569:81 0.000941321
51 *203:16 *569:45 6.25646e-05
52 *204:24 *569:45 0.000328326
53 *205:10 *569:45 3.4875e-05
54 *209:10 *569:45 5.50049e-05
55 *255:10 *1077:A 1.01436e-05
56 *259:8 *569:81 0.000283266
57 *259:24 *569:26 1.31913e-05
58 *259:40 *569:26 0.000297839
59 *275:14 *569:26 2.83401e-05
60 *276:16 *569:26 1.09903e-05
61 *280:45 *569:81 0.000143278
62 *280:76 *569:53 8.50457e-05
63 *283:36 *569:63 9.65021e-05
64 *283:81 *569:81 5.79489e-05
65 *288:25 *569:81 3.6324e-05
66 *294:16 *569:81 0.000180292
67 *299:20 *569:53 0.000354737
68 *301:10 *569:81 6.14647e-05
69 *304:10 *569:67 0.000305886
70 *310:35 *569:45 0.000137651
71 *330:10 *569:81 0.000189183
72 *449:190 *569:45 0.000130382
73 *456:103 *569:81 0.000221048
74 *495:14 *569:81 0.000451184
75 *498:16 *569:81 2.33368e-05
76 *503:50 *569:26 2.05503e-05
77 *568:26 *569:26 0.000221997
*RES
1 *1522:X *569:4 23 
2 *569:4 *569:26 49.7821 
3 *569:26 *1521:A 23 
4 *569:4 *569:45 44.2721 
5 *569:45 *569:53 35.1579 
6 *569:53 *569:63 49.6814 
7 *569:63 *569:67 6.34893 
8 *569:67 *569:81 38.3737 
9 *569:81 *1072:A 38.6214 
10 *569:67 *1077:A 44.5768 
*END

*D_NET *570 0.0349749
*CONN
*I *1578:addr[5] I *D tt_rom
*I *1522:A I *D sky130_fd_sc_hd__clkdlybuf4s25_1
*I *1523:X O *D sky130_fd_sc_hd__clkdlybuf4s25_1
*CAP
1 *1578:addr[5] 0.00424636
2 *1522:A 0.000542439
3 *1523:X 0.000355517
4 *570:69 0.00622984
5 *570:55 0.00323241
6 *570:47 0.00296739
7 *570:10 0.00261642
8 *1522:A *1112:B 4.5051e-05
9 *1578:addr[5] *1466:RESET_B 0.0017219
10 *1578:addr[5] *1578:addr[0] 1.48035e-05
11 *1578:addr[5] *1578:addr[1] 0.00140261
12 *1578:addr[5] *624:75 0.00110758
13 *570:10 *574:41 0
14 *570:47 *574:41 1.94377e-05
15 *570:69 *581:54 2.93845e-05
16 *570:69 *588:58 4.82056e-05
17 *570:69 *588:77 4.27248e-05
18 uio_oe[6] *1522:A 0
19 *1112:A *1522:A 9.84851e-05
20 *1134:B *570:69 5.56279e-05
21 *1135:A2 *570:69 0.000153375
22 *1135:B1 *570:69 0.000270671
23 *1139:A3 *570:69 9.41704e-05
24 *1214:B *570:55 0.000221997
25 *1214:C *570:55 2.61526e-05
26 *1214:D *570:55 0.000177604
27 *1239:A *570:47 0.000265466
28 *1243:A *570:47 1.4293e-05
29 *1243:B *570:47 1.46594e-05
30 *1243:C_N *570:47 6.23499e-05
31 *1246:A2 *570:47 0.000131997
32 *1256:A *570:69 8.78363e-05
33 *1256:B *570:69 1.40958e-05
34 *1289:A1 *570:69 9.54157e-05
35 *1289:B1_N *570:69 1.93623e-05
36 *1290:S *570:69 6.60009e-05
37 *1320:A0 *570:69 0.000102313
38 *1320:A1 *570:69 5.3304e-05
39 *1450:D *570:47 0.000137719
40 *1452:CLK *1522:A 0.000128486
41 *1578:addr[6] *1578:addr[5] 1.80383e-05
42 *1578:addr[7] *1578:addr[5] 0.000521324
43 *22:10 *570:47 5.73309e-05
44 *141:92 *570:55 0.000135037
45 *144:10 *570:55 5.27215e-06
46 *176:10 *570:10 2.88275e-05
47 *176:14 *570:10 6.81645e-05
48 *176:14 *570:47 0
49 *197:61 *570:69 5.50049e-05
50 *197:76 *570:55 0.000275022
51 *198:56 *570:69 6.08617e-05
52 *203:16 *1522:A 0.000102531
53 *203:16 *570:10 0.000305348
54 *212:20 *570:69 8.87647e-05
55 *219:6 *570:69 2.64616e-05
56 *277:8 *570:55 6.00862e-06
57 *281:10 *570:55 1.41077e-05
58 *293:10 *570:55 8.06804e-06
59 *299:65 *570:55 3.33677e-05
60 *302:12 *570:47 0.000368424
61 *302:12 *570:55 3.90836e-05
62 *303:10 *570:47 2.812e-05
63 *304:36 *570:47 0.000382849
64 *310:14 *570:47 1.03836e-05
65 *345:6 *570:69 0.000494979
66 *346:14 *570:69 5.67058e-05
67 *346:29 *570:69 8.6949e-05
68 *348:12 *1578:addr[5] 0.000734187
69 *408:18 *1578:addr[5] 0.00281566
70 *409:18 *1578:addr[5] 1.38508e-05
71 *463:14 *570:10 0.000178517
72 *478:12 *1578:addr[5] 0
73 *478:28 *570:69 0.000140622
74 *502:34 *570:47 0.00030373
75 *522:27 *1578:addr[5] 1.46064e-05
76 *545:10 *570:69 0.000143158
77 *556:37 *570:55 0.000133316
78 *569:26 *1522:A 0.000301116
79 *569:45 *1522:A 5.61255e-06
*RES
1 *1523:X *570:10 44.5975 
2 *570:10 *1522:A 47.2904 
3 *570:10 *570:47 44.7043 
4 *570:47 *570:55 46.7889 
5 *570:55 *570:69 49.4789 
6 *570:69 *1578:addr[5] 48.6769 
*END

*D_NET *571 0.0100115
*CONN
*I *1206:B1 I *D sky130_fd_sc_hd__o22a_2
*I *1328:S I *D sky130_fd_sc_hd__mux2_1
*I *1332:S I *D sky130_fd_sc_hd__mux2_1
*I *1205:A2 I *D sky130_fd_sc_hd__a221o_2
*I *1524:X O *D sky130_fd_sc_hd__clkdlybuf4s25_1
*CAP
1 *1206:B1 0
2 *1328:S 4.89752e-05
3 *1332:S 0
4 *1205:A2 7.6235e-06
5 *1524:X 0
6 *571:56 0.00110406
7 *571:40 0.00138618
8 *571:25 0.000541658
9 *571:10 0.00102263
10 *571:4 0.000804434
11 *1205:A2 *575:16 7.27694e-06
12 *1328:S *572:31 9.41704e-05
13 *571:25 *575:16 0.00012556
14 *571:25 *575:37 7.71594e-05
15 *571:40 *597:6 0.000179311
16 *571:40 *629:28 0.000160717
17 *571:56 *575:37 4.56316e-05
18 *1206:A2 *571:56 0.000159393
19 *1254:A *571:56 1.34542e-05
20 *1254:C *571:56 9.28078e-06
21 *1258:A *571:25 5.3304e-05
22 *1258:B *571:25 1.57571e-05
23 *1263:A3 *571:40 2.02872e-05
24 *1328:A0 *1328:S 4.67488e-05
25 *1332:A0 *571:25 0.000180218
26 *129:8 *571:10 1.05441e-05
27 *129:8 *571:25 0.000584337
28 *129:24 *1205:A2 1.46586e-05
29 *129:24 *571:10 2.00313e-05
30 *129:24 *571:40 0.000341983
31 *129:24 *571:56 3.17027e-05
32 *130:32 *571:56 0.000115401
33 *130:40 *571:56 0.000223096
34 *258:74 *571:10 4.24694e-06
35 *258:74 *571:25 2.93876e-05
36 *259:40 *571:56 0.00012235
37 *310:47 *571:56 2.13733e-05
38 *310:60 *571:56 1.43784e-05
39 *313:18 *571:10 4.05745e-05
40 *313:18 *571:40 2.64616e-05
41 *313:26 *571:40 0.000162948
42 *319:8 *571:25 2.02872e-05
43 *319:10 *571:10 3.14237e-05
44 *334:8 *571:56 4.72787e-05
45 *388:10 *571:25 0.000349206
46 *394:20 *571:56 0.000392593
47 *395:10 *571:56 1.15883e-05
48 *449:111 *571:10 0.000389033
49 *463:33 *571:56 0.000225587
50 *472:28 *571:56 0.000148936
51 *496:27 *571:25 0.000251885
52 *503:50 *571:56 2.4982e-06
53 *567:8 *571:56 0.000124075
54 *569:26 *571:56 0.000149854
*RES
1 *1524:X *571:4 23 
2 *571:4 *571:10 21.5871 
3 *571:10 *1205:A2 38.1709 
4 *571:10 *571:25 27.5529 
5 *571:25 *1332:S 23 
6 *571:4 *571:40 37.3121 
7 *571:40 *571:56 36.5843 
8 *571:56 *1328:S 39.0979 
9 *571:40 *1206:B1 23 
*END

*D_NET *572 0.00612795
*CONN
*I *1339:S I *D sky130_fd_sc_hd__mux2_1
*I *1338:S I *D sky130_fd_sc_hd__mux2_1
*I *1525:X O *D sky130_fd_sc_hd__clkdlybuf4s25_1
*CAP
1 *1339:S 0
2 *1338:S 0
3 *1525:X 0.000441426
4 *572:31 0.00112674
5 *572:20 0.000269114
6 *572:14 0.00147106
7 *572:10 0.000516628
8 *572:10 *598:96 0.000110913
9 *572:20 *1427:SET_B 0
10 *1181:A *572:31 2.64616e-05
11 *1181:B *572:31 0.000208936
12 *1328:A0 *572:31 9.50895e-05
13 *1328:A1 *572:31 5.61255e-06
14 *1328:S *572:31 9.41704e-05
15 *1338:A1 *572:10 3.3746e-05
16 *1338:A1 *572:20 0.00029043
17 *1434:CLK *572:20 0
18 *112:10 *572:31 0.000178517
19 *113:12 *572:14 3.90255e-05
20 *113:12 *572:31 0.000161407
21 *259:40 *572:31 0.00020594
22 *384:8 *572:31 0.000349807
23 *457:66 *572:31 3.50727e-05
24 *457:87 *572:20 0
25 *457:108 *572:10 3.63313e-05
26 *457:112 *572:10 2.07484e-05
27 *461:29 *572:20 0
28 *473:10 *572:20 1.83667e-05
29 *474:8 *572:14 5.3304e-05
30 *474:8 *572:31 5.50106e-05
31 *474:18 *572:20 3.47781e-05
32 *495:56 *572:10 3.47781e-05
33 *495:56 *572:14 5.3304e-05
34 *566:10 *572:31 0.00016124
35 *568:28 *572:31 0
*RES
1 *1525:X *572:10 44.4629 
2 *572:10 *572:14 16.5743 
3 *572:14 *572:20 35.4271 
4 *572:20 *1338:S 23 
5 *572:14 *572:31 36.9157 
6 *572:31 *1339:S 38 
*END

*D_NET *573 0.00810209
*CONN
*I *1111:B I *D sky130_fd_sc_hd__nand2_2
*I *1330:S I *D sky130_fd_sc_hd__mux2_1
*I *1331:S I *D sky130_fd_sc_hd__mux2_1
*I *1112:B I *D sky130_fd_sc_hd__or2_2
*I *1526:X O *D sky130_fd_sc_hd__clkdlybuf4s25_1
*CAP
1 *1111:B 3.07251e-05
2 *1330:S 0
3 *1331:S 0
4 *1112:B 0.000100021
5 *1526:X 0.000258066
6 *573:62 0.000295885
7 *573:47 0.000855163
8 *573:28 0.000654661
9 *573:18 0.00140675
10 *573:10 0.000323553
11 *573:8 0.000258066
12 *573:8 *621:56 5.43589e-05
13 *573:47 *1436:RESET_B 0.000377645
14 *573:47 *575:57 1.16512e-05
15 *1112:A *1112:B 0.000181125
16 *1112:A *573:28 0.000553249
17 *1113:A1 *573:18 0.000105921
18 *1113:A2 *573:18 7.27694e-06
19 *1330:A1 *573:62 4.77164e-06
20 *1452:CLK *573:28 5.80848e-05
21 *1522:A *1112:B 4.5051e-05
22 *173:66 *573:18 4.77247e-05
23 *173:66 *573:47 0.000172312
24 *207:22 *573:8 6.16519e-05
25 *208:8 *1111:B 9.77405e-05
26 *208:8 *573:18 4.93974e-05
27 *209:10 *1112:B 2.79662e-05
28 *209:10 *573:18 0.000109374
29 *210:12 *1111:B 3.05357e-05
30 *210:12 *573:18 1.3523e-05
31 *254:8 *573:47 9.23705e-06
32 *254:8 *573:62 1.24007e-05
33 *255:20 *573:47 9.54192e-05
34 *255:20 *573:62 4.82966e-07
35 *280:62 *573:8 6.16519e-05
36 *280:76 *573:8 4.95487e-06
37 *306:32 *573:18 0.000230352
38 *306:32 *573:47 0.000140377
39 *306:55 *573:47 0.000277107
40 *310:22 *573:28 5.58534e-05
41 *397:26 *573:47 0
42 *397:26 *573:62 3.02372e-05
43 *465:26 *573:62 0.000151098
44 *465:34 *573:47 0.000350186
45 *488:22 *573:47 0.000249053
46 *488:22 *573:62 7.78291e-06
47 *569:45 *1112:B 9.62764e-05
48 *569:45 *573:18 0.000137368
*RES
1 *1526:X *573:8 41.6664 
2 *573:8 *573:10 15 
3 *573:10 *573:18 21.6907 
4 *573:18 *573:28 37.8093 
5 *573:28 *1112:B 41.0036 
6 *573:18 *573:47 29.355 
7 *573:47 *1331:S 23 
8 *573:47 *573:62 34.0911 
9 *573:62 *1330:S 23 
10 *573:10 *1111:B 24.0979 
*END

*D_NET *574 0.0160301
*CONN
*I *1525:A I *D sky130_fd_sc_hd__clkdlybuf4s25_1
*I *1337:S I *D sky130_fd_sc_hd__mux2_1
*I *1526:A I *D sky130_fd_sc_hd__clkdlybuf4s25_1
*I *1524:A I *D sky130_fd_sc_hd__clkdlybuf4s25_1
*I *1527:X O *D sky130_fd_sc_hd__clkdlybuf4s25_1
*CAP
1 *1525:A 0
2 *1337:S 0
3 *1526:A 4.25487e-05
4 *1524:A 0.000136046
5 *1527:X 8.20999e-05
6 *574:69 0.00104378
7 *574:41 0.0011629
8 *574:31 0.00190149
9 *574:23 0.00239824
10 *574:12 0.000791468
11 *1524:A *626:28 0
12 *1526:A *579:39 0.000139346
13 *574:23 *1446:RESET_B 0
14 *574:41 *1109:B 9.16502e-05
15 *574:41 *575:49 0.000341866
16 *574:41 *579:39 7.44362e-05
17 *574:41 *599:10 0.000209836
18 *574:41 *602:116 0.000243054
19 uio_oe[6] *574:31 2.96913e-05
20 uio_oe[6] *574:41 0.000221317
21 *1175:B *574:23 0.000111123
22 *1175:B *574:69 5.06657e-05
23 *1209:A2 *574:23 3.87221e-06
24 *1337:A1 *574:31 5.88641e-05
25 *1337:A1 *574:41 4.77164e-06
26 *23:12 *574:41 2.47015e-05
27 *140:12 *574:69 2.82105e-05
28 *141:18 *574:41 0.000316996
29 *141:28 *574:41 8.96204e-05
30 *173:18 *574:41 4.09412e-06
31 *173:66 *574:41 4.36778e-05
32 *176:10 *574:41 9.86959e-05
33 *176:14 *574:41 0.000121353
34 *204:24 *574:41 1.0794e-05
35 *258:74 *1524:A 0.000178594
36 *258:74 *574:23 0.000884676
37 *258:74 *574:69 0.000102881
38 *260:24 *574:31 0.00142383
39 *275:22 *574:23 0
40 *287:16 *1526:A 0.000137827
41 *299:20 *574:41 1.51076e-05
42 *310:10 *574:41 4.60157e-05
43 *324:10 *1524:A 1.05441e-05
44 *333:31 *574:12 2.02872e-05
45 *334:16 *1524:A 5.43589e-05
46 *334:16 *574:12 0.000120326
47 *334:16 *574:23 3.55458e-05
48 *335:18 *574:12 0.000179092
49 *457:114 *574:69 0
50 *461:39 *574:69 0.000625855
51 *461:54 *574:31 0.000481991
52 *461:54 *574:69 0.000354689
53 *462:12 *574:23 0.000217743
54 *462:50 *574:31 0.000295226
55 *474:18 *574:31 6.41487e-05
56 *474:39 *574:31 7.35164e-05
57 *488:8 *574:23 0
58 *495:14 *574:41 0.000346074
59 *563:42 *574:31 0.000156351
60 *563:42 *574:69 0.000308819
61 *570:10 *574:41 0
62 *570:47 *574:41 1.94377e-05
*RES
1 *1527:X *574:12 40.6929 
2 *574:12 *1524:A 40.61 
3 *574:12 *574:23 12.6461 
4 *574:23 *574:31 20.7736 
5 *574:31 *574:41 36.6671 
6 *574:41 *1526:A 39.5743 
7 *574:31 *1337:S 38 
8 *574:23 *574:69 36.1164 
9 *574:69 *1525:A 23 
*END

*D_NET *575 0.0130672
*CONN
*I *1077:B I *D sky130_fd_sc_hd__or3_2
*I *1335:S I *D sky130_fd_sc_hd__mux2_1
*I *1527:A I *D sky130_fd_sc_hd__clkdlybuf4s25_1
*I *1528:X O *D sky130_fd_sc_hd__clkdlybuf4s25_1
*CAP
1 *1077:B 0
2 *1335:S 0
3 *1527:A 0
4 *1528:X 0.000118695
5 *575:65 0.000181702
6 *575:57 0.000918623
7 *575:49 0.00175941
8 *575:37 0.0019196
9 *575:16 0.0013283
10 *575:8 0.000549881
11 *575:16 *578:39 5.3304e-05
12 *575:49 *602:116 0.000196043
13 *575:49 *628:30 0.000428126
14 *575:65 *1437:RESET_B 1.34354e-05
15 *1077:A *575:65 2.96154e-05
16 *1205:A2 *575:16 7.27694e-06
17 *1452:CLK *575:37 7.53384e-06
18 *127:12 *575:8 0.000258368
19 *128:32 *575:16 6.39489e-06
20 *129:24 *575:16 3.08632e-05
21 *173:66 *575:49 2.4917e-05
22 *177:41 *575:65 5.50106e-05
23 *178:8 *575:65 4.6318e-06
24 *179:66 *575:49 0.000438257
25 *254:8 *575:57 0.000135772
26 *255:20 *575:57 0.000377454
27 *257:30 *575:8 0.00026377
28 *258:74 *575:16 5.22717e-05
29 *258:74 *575:37 4.00673e-05
30 *300:22 *575:57 9.28078e-06
31 *310:10 *575:49 6.92184e-05
32 *318:32 *575:57 3.13359e-05
33 *333:31 *575:37 0.00077675
34 *334:16 *575:37 6.08617e-05
35 *335:18 *575:37 4.95851e-05
36 *398:12 *575:57 0.000442652
37 *398:12 *575:65 0.000434159
38 *449:111 *575:16 2.91026e-05
39 *449:115 *575:16 2.92911e-06
40 *457:20 *575:65 0.000202025
41 *463:14 *575:49 0.000137651
42 *465:34 *575:57 1.15883e-05
43 *472:28 *575:49 0.000534964
44 *473:51 *575:49 4.83435e-05
45 *495:14 *575:49 0.00019815
46 *502:34 *575:49 9.0111e-05
47 *567:37 *575:37 9.41704e-05
48 *569:26 *575:37 4.30894e-05
49 *571:25 *575:16 0.00012556
50 *571:25 *575:37 7.71594e-05
51 *571:56 *575:37 4.56316e-05
52 *573:47 *575:57 1.16512e-05
53 *574:41 *575:49 0.000341866
*RES
1 *1528:X *575:8 41.6664 
2 *575:8 *575:16 35.8621 
3 *575:16 *1527:A 38 
4 *575:16 *575:37 44.5725 
5 *575:37 *575:49 41.2592 
6 *575:49 *575:57 42.1593 
7 *575:57 *575:65 35.7586 
8 *575:65 *1335:S 23 
9 *575:57 *1077:B 23 
*END

*D_NET *576 0.00498484
*CONN
*I *1100:A I *D sky130_fd_sc_hd__xnor2_2
*I *1101:A I *D sky130_fd_sc_hd__xor2_2
*I *1575:X O *D sky130_fd_sc_hd__clkdlybuf4s25_1
*CAP
1 *1100:A 0
2 *1101:A 0
3 *1575:X 0.000228079
4 *576:37 0.000159693
5 *576:26 0.000274175
6 *576:14 0.00127007
7 *576:8 0.00106428
8 *576:14 *1285:B 6.81908e-05
9 *576:14 *587:16 0.000214105
10 *576:14 *606:64 0.000644513
11 *1101:B *576:26 6.16439e-05
12 *1101:B *576:37 0
13 *1146:B *576:14 0.0002263
14 *1347:A *576:14 3.22879e-05
15 *197:111 *576:14 1.83667e-05
16 *198:8 *576:26 1.62015e-05
17 *198:8 *576:37 4.4625e-05
18 *241:10 *576:14 5.50106e-05
19 *241:10 *576:37 7.29203e-05
20 *446:40 *576:14 0.000133628
21 *446:40 *576:26 0.000308711
22 *447:85 *576:8 6.17437e-06
23 *483:57 *576:37 1.14452e-05
24 *484:14 *576:37 0
25 *517:52 *576:26 7.4416e-05
*RES
1 *1575:X *576:8 40.5271 
2 *576:8 *576:14 33.3529 
3 *576:14 *576:26 35.4479 
4 *576:26 *1101:A 23 
5 *576:14 *576:37 32.61 
6 *576:37 *1100:A 23 
*END

*D_NET *577 0.0455527
*CONN
*I *1578:addr[4] I *D tt_rom
*I *1528:A I *D sky130_fd_sc_hd__clkdlybuf4s25_1
*I *1529:X O *D sky130_fd_sc_hd__clkdlybuf4s25_1
*CAP
1 *1578:addr[4] 0.0021059
2 *1528:A 0
3 *1529:X 0.000592107
4 *577:43 0.00992766
5 *577:26 0.000871768
6 *577:12 0.00869352
7 *577:10 0.000592107
8 *1578:addr[4] *1578:addr[3] 1.37287e-05
9 *1578:addr[4] *624:75 0.00199448
10 *1578:addr[4] *624:83 0.000449837
11 *577:10 *629:28 0.000696386
12 *577:26 *1203:B1 8.21456e-06
13 *577:26 *1442:RESET_B 1.40533e-05
14 *577:26 *578:16 0.000277592
15 *577:26 *597:42 7.48591e-05
16 *577:26 *599:49 0.000208297
17 *577:26 *624:38 0.000137796
18 *577:43 *1578:addr[1] 5.44993e-06
19 *577:43 *578:56 0.000648878
20 *577:43 *599:49 0.000664393
21 *577:43 *602:73 0.00329591
22 *577:43 *607:49 0.00061782
23 *577:43 *608:59 0.000473677
24 *577:43 *610:43 0.000133285
25 *577:43 *613:54 0.000100794
26 *577:43 *614:74 0
27 *577:43 *617:100 2.27747e-06
28 *577:43 *623:60 2.93396e-05
29 *577:43 *624:75 0.000883022
30 *1263:A1 *577:10 5.96346e-06
31 *1578:addr[11] *577:43 0.00341609
32 *127:28 *577:26 0.000364343
33 *134:31 *577:43 0.00173409
34 *142:22 *577:26 4.02903e-05
35 *180:12 *577:43 0.000738985
36 *180:32 *577:43 6.77824e-05
37 *257:30 *577:26 1.09783e-05
38 *259:24 *577:43 0.000182109
39 *280:45 *577:43 3.76096e-05
40 *284:64 *577:43 0.000658504
41 *287:41 *577:43 4.51815e-05
42 *307:28 *577:10 1.02032e-05
43 *310:47 *577:10 2.9131e-05
44 *312:20 *577:26 7.47936e-05
45 *312:35 *577:26 5.96881e-05
46 *321:33 *577:10 0.000281231
47 *322:24 *577:26 0.00101372
48 *322:24 *577:43 0.000366021
49 *330:22 *577:43 0.00140116
50 *333:31 *577:10 0
51 *335:18 *577:10 5.50106e-05
52 *369:18 *577:43 0.000796534
53 *453:28 *577:43 0.000108085
54 *481:38 *577:43 7.93305e-05
55 *481:52 *577:43 3.65347e-05
56 *492:8 *577:26 0.000135037
57 *508:87 *577:43 0.000291172
58 *523:48 *577:43 0
*RES
1 *1529:X *577:10 48.8025 
2 *577:10 *577:12 8 
3 *577:12 *577:26 48.8211 
4 *577:26 *1528:A 38 
5 *577:12 *577:43 42.7549 
6 *577:43 *1578:addr[4] 36.524 
*END

*D_NET *578 0.0165243
*CONN
*I *1087:A2_N I *D sky130_fd_sc_hd__a2bb2o_2
*I *1090:B1 I *D sky130_fd_sc_hd__a22o_2
*I *1205:B1 I *D sky130_fd_sc_hd__a221o_2
*I *1204:A2 I *D sky130_fd_sc_hd__o221a_2
*I *1530:X O *D sky130_fd_sc_hd__clkdlybuf4s25_1
*CAP
1 *1087:A2_N 0.000463892
2 *1090:B1 3.78308e-05
3 *1205:B1 0
4 *1204:A2 0
5 *1530:X 0.000104835
6 *578:56 0.0030524
7 *578:39 0.000322947
8 *578:16 0.00079469
9 *578:10 0.00312725
10 *1087:A2_N *595:55 0.000139352
11 *1087:A2_N *596:61 0.000126192
12 *1087:A2_N *630:72 6.15106e-05
13 *578:10 *599:49 5.43589e-05
14 *578:10 *629:28 4.30785e-05
15 *578:16 *1443:RESET_B 0
16 *578:16 *599:49 7.47186e-05
17 *578:16 *624:59 1.43151e-05
18 *578:39 *579:27 5.77328e-05
19 *578:39 *626:28 3.62045e-05
20 *578:56 *579:27 0.000157325
21 *578:56 *599:49 0.000766748
22 *578:56 *624:59 0.00141567
23 *1087:A1_N *1087:A2_N 2.26823e-05
24 *1226:A2 *578:56 5.64492e-05
25 *123:52 *578:56 5.30255e-05
26 *127:12 *578:39 6.69637e-06
27 *128:32 *578:39 0.000190903
28 *142:22 *578:16 0.00059662
29 *142:22 *578:56 0.00153113
30 *184:10 *1087:A2_N 5.95625e-06
31 *187:10 *1087:A2_N 5.69874e-05
32 *187:10 *1090:B1 4.51797e-05
33 *210:24 *578:56 2.05503e-05
34 *259:24 *578:56 0
35 *284:22 *578:56 0.000289115
36 *289:54 *578:56 0.00024397
37 *290:28 *578:56 0.000240201
38 *292:27 *578:56 2.4917e-05
39 *319:10 *578:16 0.000260786
40 *319:10 *578:39 0.00021651
41 *321:33 *578:16 0.000138413
42 *330:22 *578:56 0.000303782
43 *449:94 *578:10 1.43064e-05
44 *449:111 *578:39 1.59094e-05
45 *449:219 *1087:A2_N 2.05503e-05
46 *449:219 *578:56 5.73402e-05
47 *473:71 *1087:A2_N 7.97137e-05
48 *473:83 *1087:A2_N 0.000201761
49 *575:16 *578:39 5.3304e-05
50 *577:26 *578:16 0.000277592
51 *577:43 *578:56 0.000648878
*RES
1 *1530:X *578:10 47.7296 
2 *578:10 *578:16 13.0148 
3 *578:16 *1204:A2 38 
4 *578:16 *578:39 35.1703 
5 *578:39 *1205:B1 23 
6 *578:10 *578:56 24.2014 
7 *578:56 *1090:B1 38.6732 
8 *578:56 *1087:A2_N 46.6896 
*END

*D_NET *579 0.0109838
*CONN
*I *1204:B1 I *D sky130_fd_sc_hd__o221a_2
*I *1109:B I *D sky130_fd_sc_hd__or2_2
*I *1110:B I *D sky130_fd_sc_hd__nand2_2
*I *1203:B1 I *D sky130_fd_sc_hd__a221o_2
*I *1531:X O *D sky130_fd_sc_hd__clkdlybuf4s25_1
*CAP
1 *1204:B1 7.82743e-05
2 *1109:B 9.97239e-05
3 *1110:B 0
4 *1203:B1 0.000416247
5 *1531:X 0
6 *579:39 0.000652447
7 *579:27 0.0016897
8 *579:21 0.00102359
9 *579:6 0.000424034
10 *1203:B1 *624:38 0.000115478
11 *579:27 *624:59 0.00226649
12 *579:27 *626:28 1.75703e-05
13 *579:39 *621:72 4.98109e-05
14 *1203:A1 *1203:B1 2.26406e-05
15 *1204:A1 *1204:B1 1.28818e-05
16 *1204:B2 *1204:B1 1.28818e-05
17 *1279:A *579:39 2.31687e-05
18 *1526:A *579:39 0.000139346
19 *126:24 *1203:B1 7.57281e-06
20 *128:32 *1204:B1 3.70187e-05
21 *141:28 *579:39 6.02684e-06
22 *142:22 *579:27 0.000174993
23 *205:10 *1109:B 5.3304e-05
24 *207:22 *579:39 0.000310864
25 *257:30 *1203:B1 0
26 *271:18 *1203:B1 3.36692e-05
27 *271:18 *1204:B1 3.47385e-05
28 *271:18 *579:21 6.65598e-06
29 *280:76 *579:39 2.18286e-05
30 *285:26 *579:39 0.000314617
31 *287:16 *579:39 6.69016e-05
32 *299:20 *1109:B 8.18131e-05
33 *299:20 *579:39 4.97925e-05
34 *309:10 *579:39 1.34308e-05
35 *314:14 *579:27 0.00127753
36 *314:39 *579:27 0.000641826
37 *319:10 *1203:B1 0.000241659
38 *319:10 *1204:B1 0.000115478
39 *319:10 *579:21 2.26406e-05
40 *319:12 *1203:B1 1.19727e-05
41 *319:24 *1203:B1 2.58394e-05
42 *574:41 *1109:B 9.16502e-05
43 *574:41 *579:39 7.44362e-05
44 *577:26 *1203:B1 8.21456e-06
45 *578:39 *579:27 5.77328e-05
46 *578:56 *579:27 0.000157325
*RES
1 *1531:X *579:6 38 
2 *579:6 *1203:B1 45.7264 
3 *579:6 *579:21 0.321071 
4 *579:21 *579:27 20.8645 
5 *579:27 *579:39 27.2939 
6 *579:39 *1110:B 23 
7 *579:27 *1109:B 39.9989 
8 *579:21 *1204:B1 39.8798 
*END

*D_NET *580 0.0144735
*CONN
*I *1203:A2 I *D sky130_fd_sc_hd__a221o_2
*I *1202:B2 I *D sky130_fd_sc_hd__o2bb2a_2
*I *1087:B1 I *D sky130_fd_sc_hd__a2bb2o_2
*I *1088:B1 I *D sky130_fd_sc_hd__o22a_2
*I *1532:X O *D sky130_fd_sc_hd__clkdlybuf4s25_1
*CAP
1 *1203:A2 0.000264725
2 *1202:B2 7.0715e-05
3 *1087:B1 0.000262015
4 *1088:B1 0.000105577
5 *1532:X 0.000243109
6 *580:44 0.00083357
7 *580:34 0.00108109
8 *580:22 0.00194317
9 *580:12 0.00152991
10 *580:10 0.000638973
11 *1087:B1 *595:55 7.38543e-05
12 *1087:B1 *630:72 2.45093e-05
13 *1087:B1 *630:76 2.41378e-06
14 *1088:B1 *595:55 0.00014261
15 *1202:B2 *604:8 1.34914e-05
16 *1203:A2 *639:DIODE 5.50049e-05
17 *580:34 *584:46 1.85086e-05
18 *580:34 *591:29 0.000112877
19 *580:34 *595:41 0.000380105
20 *580:44 *591:29 0.000994939
21 *580:44 *631:67 0.000169703
22 *1087:B2 *1087:B1 1.83408e-05
23 *1098:B *580:44 2.32554e-05
24 *1281:A *580:22 7.28609e-05
25 *64:14 *580:34 5.25022e-05
26 *75:8 *580:22 4.24694e-06
27 *126:24 *1202:B2 5.73309e-05
28 *134:14 *1202:B2 8.39585e-06
29 *141:34 *580:34 0.000274237
30 *142:32 *580:34 1.21972e-05
31 *186:18 *1088:B1 0
32 *193:8 *580:34 5.23105e-05
33 *193:24 *580:44 1.30346e-05
34 *195:12 *580:34 2.93335e-05
35 *257:30 *580:34 0.00104208
36 *257:30 *580:44 6.55538e-05
37 *258:30 *580:34 0.000115989
38 *258:44 *580:22 8.51239e-05
39 *258:66 *1202:B2 3.33274e-05
40 *258:66 *580:12 1.38526e-05
41 *258:66 *580:22 2.46727e-05
42 *271:10 *1203:A2 4.9662e-05
43 *319:37 *580:10 0.000137651
44 *321:18 *580:22 0
45 *324:14 *580:10 5.80974e-05
46 *324:14 *580:12 3.06908e-05
47 *325:6 *1203:A2 0.000183638
48 *449:36 *580:22 0.000327867
49 *449:38 *580:22 0.000813357
50 *449:44 *580:22 9.84794e-05
51 *449:83 *580:22 5.83599e-05
52 *449:94 *580:10 6.15174e-05
53 *449:94 *580:12 5.97606e-05
54 *449:94 *580:22 2.17571e-05
55 *456:214 *1202:B2 0.000224283
56 *460:34 *580:44 0.000185847
57 *461:97 *580:44 0.00013851
58 *471:66 *580:44 4.62843e-05
59 *472:50 *580:44 3.41998e-06
60 *473:83 *1087:B1 1.28035e-05
61 *473:83 *1088:B1 5.54806e-05
62 *473:83 *580:44 7.12426e-05
63 *503:24 *580:34 0.000803295
64 *506:10 *580:34 7.20154e-05
*RES
1 *1532:X *580:10 41.8321 
2 *580:10 *580:12 2.25786 
3 *580:12 *580:22 49.8339 
4 *580:22 *580:34 41.4897 
5 *580:34 *580:44 33.9704 
6 *580:44 *1088:B1 40.0818 
7 *580:44 *1087:B1 41.6975 
8 *580:12 *1202:B2 40.5271 
9 *580:10 *1203:A2 43.1682 
*END

*D_NET *581 0.00861096
*CONN
*I *1067:B I *D sky130_fd_sc_hd__nand2_2
*I *1135:A1 I *D sky130_fd_sc_hd__a21oi_2
*I *1116:A I *D sky130_fd_sc_hd__xnor2_2
*I *1070:A I *D sky130_fd_sc_hd__nand2_2
*I *1533:X O *D sky130_fd_sc_hd__clkdlybuf4s25_1
*CAP
1 *1067:B 0
2 *1135:A1 0
3 *1116:A 0
4 *1070:A 0
5 *1533:X 0.000212149
6 *581:67 0.000312349
7 *581:54 0.000617475
8 *581:46 0.00150832
9 *581:31 0.000992637
10 *581:18 0.000352885
11 *581:10 0.000979175
12 *581:10 *583:22 3.76355e-05
13 *581:10 *590:51 7.75736e-06
14 *581:10 *620:38 5.79438e-05
15 *581:18 *1541:A 3.22879e-05
16 *581:18 *590:51 0.000140259
17 *581:31 *590:51 3.10579e-05
18 *581:31 *620:38 0.000114856
19 *581:46 *1084:A1 2.93845e-05
20 *581:46 *1321:B2 1.01436e-05
21 *581:46 *1535:A 2.93747e-05
22 *581:46 *583:6 9.68547e-05
23 *581:46 *583:22 1.21972e-05
24 *581:46 *583:33 6.4336e-05
25 *581:46 *585:28 0.000180224
26 *581:46 *594:40 0.000355029
27 *581:46 *621:93 0.000349807
28 *581:54 *634:10 0.000228582
29 *581:67 *594:40 0.000222953
30 *581:67 *615:63 0.00029234
31 *1307:A1 *581:46 5.24457e-05
32 *1307:A1 *581:54 0
33 *1307:A1 *581:67 2.25809e-05
34 *1316:B *581:54 0.000125156
35 *1317:B *581:54 5.85486e-05
36 *1320:S *581:54 7.37814e-06
37 *1324:B *581:10 0
38 *121:14 *581:54 0.00041056
39 *170:12 *581:31 9.66692e-05
40 *172:8 *581:18 1.05441e-05
41 *174:10 *581:18 3.63094e-05
42 *183:14 *581:46 6.17437e-06
43 *183:14 *581:67 2.32101e-05
44 *191:8 *581:31 1.01436e-05
45 *191:30 *581:18 2.82704e-05
46 *200:73 *581:31 0
47 *200:73 *581:67 8.30566e-06
48 *212:10 *581:46 4.9662e-05
49 *212:20 *581:54 5.50106e-05
50 *350:22 *581:67 4.30894e-05
51 *371:18 *581:67 0
52 *374:8 *581:54 3.56575e-05
53 *381:12 *581:18 6.08876e-05
54 *381:18 *581:46 0.000172963
55 *570:69 *581:54 2.93845e-05
*RES
1 *1533:X *581:10 41.5836 
2 *581:10 *581:18 35.8621 
3 *581:18 *1070:A 38 
4 *581:10 *581:31 21.1729 
5 *581:31 *1116:A 23 
6 *581:31 *581:46 43.8579 
7 *581:46 *581:54 41.3307 
8 *581:54 *1135:A1 23 
9 *581:46 *581:67 35.8414 
10 *581:67 *1067:B 23 
*END

*D_NET *582 0.00219692
*CONN
*I *1326:A I *D sky130_fd_sc_hd__or2_2
*I *1321:B2 I *D sky130_fd_sc_hd__a22o_2
*I *1534:X O *D sky130_fd_sc_hd__clkdlybuf4s25_1
*CAP
1 *1326:A 0.000170672
2 *1321:B2 0.000150362
3 *1534:X 0.000153511
4 *582:8 0.000474545
5 *1321:B2 *583:33 0.000181047
6 *121:8 *582:8 0.000112219
7 *189:70 *1326:A 0.000166522
8 *190:8 *1326:A 0.000113153
9 *197:38 *1326:A 4.62917e-05
10 *349:12 *582:8 0.000347205
11 *376:21 *1321:B2 2.08253e-05
12 *376:21 *1326:A 8.44497e-05
13 *381:18 *1321:B2 9.18082e-05
14 *381:18 *1326:A 7.41616e-05
15 *581:46 *1321:B2 1.01436e-05
*RES
1 *1534:X *582:8 41.9564 
2 *582:8 *1321:B2 41.3143 
3 *582:8 *1326:A 42.7229 
*END

*D_NET *583 0.00416345
*CONN
*I *1534:A I *D sky130_fd_sc_hd__clkdlybuf4s25_1
*I *1533:A I *D sky130_fd_sc_hd__clkdlybuf4s25_1
*I *1535:X O *D sky130_fd_sc_hd__clkdlybuf4s25_1
*CAP
1 *1534:A 0
2 *1533:A 0
3 *1535:X 0.000164451
4 *583:33 0.000278031
5 *583:22 0.000768976
6 *583:6 0.00121146
7 *583:22 *643:DIODE 1.40958e-05
8 *583:22 *1535:A 5.50049e-05
9 *583:22 *585:12 0.000182832
10 *583:22 *585:28 7.44161e-06
11 *583:22 *588:10 3.56709e-05
12 *583:22 *594:16 0.000181125
13 *583:22 *595:55 3.70187e-05
14 *583:22 *614:36 0.000401899
15 *583:22 *620:38 0
16 *583:33 *585:28 6.21577e-05
17 *583:33 *616:53 7.22049e-05
18 *583:33 *617:73 0.000120444
19 *1321:B2 *583:33 0.000181047
20 *170:12 *583:22 2.47233e-05
21 *376:21 *583:33 0.000153251
22 *381:18 *583:33 5.92738e-07
23 *581:10 *583:22 3.76355e-05
24 *581:46 *583:6 9.68547e-05
25 *581:46 *583:22 1.21972e-05
26 *581:46 *583:33 6.4336e-05
*RES
1 *1535:X *583:6 26.0036 
2 *583:6 *583:22 45.9086 
3 *583:22 *1533:A 23 
4 *583:6 *583:33 36.1314 
5 *583:33 *1534:A 23 
*END

*D_NET *584 0.0177992
*CONN
*I *1535:A I *D sky130_fd_sc_hd__clkdlybuf4s25_1
*I *643:DIODE I *D sky130_fd_sc_hd__diode_2
*I *1582:A I *D sky130_fd_sc_hd__nand4_1
*I *1536:X O *D sky130_fd_sc_hd__clkdlybuf4s25_1
*CAP
1 *1535:A 1.80505e-05
2 *643:DIODE 0.000114645
3 *1582:A 9.51667e-05
4 *1536:X 0.000864292
5 *584:70 0.00180376
6 *584:46 0.00335787
7 *584:36 0.00189342
8 *584:10 0.000716742
9 *643:DIODE *1069:C1 5.50049e-05
10 *643:DIODE *585:12 2.32101e-05
11 *643:DIODE *585:28 5.50049e-05
12 *643:DIODE *588:35 2.05503e-05
13 *643:DIODE *596:85 3.41998e-06
14 *1582:A *595:12 0.000112024
15 *1582:A *617:42 0.000222671
16 *584:10 *613:18 1.67942e-05
17 *584:10 *613:26 1.36806e-05
18 *584:10 *624:28 9.80616e-05
19 *584:10 *629:22 0.000159648
20 *584:36 *613:26 0.000540376
21 *584:46 *617:61 6.86581e-05
22 *584:70 *596:45 1.05658e-05
23 *584:70 *612:54 1.41608e-05
24 *584:70 *617:73 0.0021493
25 *584:70 *620:30 0.00212442
26 *584:70 *630:62 0.000172671
27 *1010:A *584:46 5.65148e-05
28 *1089:A *584:46 7.88293e-05
29 *1096:B1 *584:70 0.000223554
30 *1270:A2 *584:36 0.000130985
31 *1280:A *584:46 0.000184413
32 *1280:B *584:46 9.03851e-06
33 *1280:B *584:70 1.94884e-05
34 *1281:A *584:46 7.88926e-05
35 *1281:B *584:46 9.58714e-05
36 *64:30 *584:70 0.000171213
37 *125:24 *584:46 9.84794e-05
38 *142:32 *584:46 3.26088e-05
39 *186:12 *584:46 4.91297e-05
40 *193:8 *584:46 0
41 *201:14 *584:46 5.50049e-05
42 *258:30 *584:46 3.18198e-05
43 *319:24 *584:10 3.16665e-05
44 *328:6 *584:10 0.00040238
45 *328:6 *584:36 0.000274201
46 *337:12 *584:70 1.02561e-05
47 *338:14 *584:46 0.000159426
48 *338:22 *584:46 7.42621e-05
49 *350:22 *584:70 0.000133695
50 *471:52 *584:70 0.000418957
51 *506:10 *584:46 8.4047e-05
52 *506:31 *584:46 5.3304e-05
53 *580:34 *584:46 1.85086e-05
54 *581:46 *1535:A 2.93747e-05
55 *583:22 *643:DIODE 1.40958e-05
56 *583:22 *1535:A 5.50049e-05
*RES
1 *1536:X *584:10 47.5493 
2 *584:10 *1582:A 40.5271 
3 *1536:X *584:36 32.0832 
4 *584:36 *584:46 42.6639 
5 *584:46 *584:70 49.1982 
6 *584:70 *643:DIODE 47.8954 
7 *643:DIODE *1535:A 46.6214 
*END

*D_NET *585 0.00826121
*CONN
*I *1119:A I *D sky130_fd_sc_hd__or2_2
*I *1118:A I *D sky130_fd_sc_hd__nand2_2
*I *1321:A1 I *D sky130_fd_sc_hd__a22o_2
*I *1069:B1 I *D sky130_fd_sc_hd__a211o_2
*I *1537:X O *D sky130_fd_sc_hd__clkdlybuf4s25_1
*CAP
1 *1119:A 0
2 *1118:A 0
3 *1321:A1 0
4 *1069:B1 0
5 *1537:X 0.00051109
6 *585:64 0.000721022
7 *585:51 6.86991e-05
8 *585:45 0.0016561
9 *585:30 0.000866382
10 *585:28 0.000367498
11 *585:12 0.000143593
12 *585:12 *1069:C1 0.000236857
13 *585:12 *1537:A 5.50106e-05
14 *585:12 *594:16 0.000233565
15 *585:12 *596:79 1.21972e-05
16 *585:28 *594:40 4.6318e-06
17 *585:28 *617:73 2.05503e-05
18 *585:45 *586:25 0.000137368
19 *585:45 *621:93 3.5842e-05
20 *643:DIODE *585:12 2.32101e-05
21 *643:DIODE *585:28 5.50049e-05
22 *1135:B1 *585:64 2.19845e-05
23 *1288:A_N *585:51 0.000133653
24 *1289:A1 *585:64 0.000565246
25 *1307:A1 *585:28 0
26 *1307:A1 *585:45 0.000106017
27 *1321:A2 *585:45 0.00011648
28 *212:10 *585:45 0.000161171
29 *212:20 *585:45 0.000428114
30 *212:20 *585:64 6.17437e-06
31 *213:51 *585:64 4.77164e-06
32 *213:72 *585:51 0.000133653
33 *232:10 *585:64 0.000135008
34 *344:8 *585:64 0
35 *345:6 *585:64 4.94073e-05
36 *351:10 *585:64 0
37 *376:21 *585:28 1.14452e-05
38 *377:8 *585:28 2.39523e-05
39 *377:8 *585:45 0.000380637
40 *557:71 *585:45 0.000402218
41 *581:46 *585:28 0.000180224
42 *583:22 *585:12 0.000182832
43 *583:22 *585:28 7.44161e-06
44 *583:33 *585:28 6.21577e-05
*RES
1 *1537:X *585:12 28.5721 
2 *585:12 *1069:B1 23 
3 *1537:X *585:28 43.6136 
4 *585:28 *585:30 15 
5 *585:30 *1321:A1 23 
6 *585:30 *585:45 46.53 
7 *585:45 *585:51 31.9057 
8 *585:51 *1118:A 23 
9 *585:45 *585:64 40.6264 
10 *585:64 *1119:A 23 
*END

*D_NET *586 0.00311905
*CONN
*I *1134:A I *D sky130_fd_sc_hd__and3_2
*I *1319:B2 I *D sky130_fd_sc_hd__o22a_2
*I *1538:X O *D sky130_fd_sc_hd__clkdlybuf4s25_1
*CAP
1 *1134:A 0
2 *1319:B2 0.00014507
3 *1538:X 0.000236393
4 *586:25 0.00039811
5 *586:6 0.000779573
6 *1319:B2 *588:54 1.09903e-05
7 *1319:B2 *621:93 0.000174347
8 *586:6 *588:54 0.000282333
9 *586:25 *634:10 0.000497764
10 *1117:A *586:25 0.000158146
11 *1117:B *586:25 4.95487e-06
12 *212:20 *586:25 0.000137368
13 *213:38 *586:25 0.000156627
14 *223:26 *586:25 0
15 *371:18 *586:25 0
16 *585:45 *586:25 0.000137368
*RES
1 *1538:X *586:6 26.48 
2 *586:6 *1319:B2 26.045 
3 *586:6 *586:25 38.7621 
4 *586:25 *1134:A 23 
*END

*D_NET *587 0.00473417
*CONN
*I *1092:A I *D sky130_fd_sc_hd__xor2_2
*I *1576:X O *D sky130_fd_sc_hd__clkdlybuf4s25_1
*CAP
1 *1092:A 2.99646e-05
2 *1576:X 0
3 *587:16 0.00168305
4 *587:6 0.00165309
5 *587:16 *1465:SET_B 3.92355e-05
6 *1146:B *587:16 0
7 *1347:A *587:16 0.000111273
8 *11:15 *587:16 0.000154839
9 *57:12 *1092:A 1.94693e-05
10 *151:72 *587:16 0.000260565
11 *180:70 *587:16 0.000133216
12 *189:12 *587:16 1.81615e-05
13 *197:111 *587:16 0.000124455
14 *442:20 *587:16 0
15 *483:68 *587:16 0
16 *516:58 *587:16 9.2049e-05
17 *522:27 *587:16 0.000200699
18 *576:14 *587:16 0.000214105
*RES
1 *1576:X *587:6 38 
2 *587:6 *587:16 35.1206 
3 *587:16 *1092:A 38.6214 
*END

*D_NET *588 0.0115042
*CONN
*I *1132:B1 I *D sky130_fd_sc_hd__o21a_2
*I *1123:A I *D sky130_fd_sc_hd__nor2_2
*I *1319:A1 I *D sky130_fd_sc_hd__o22a_2
*I *1069:C1 I *D sky130_fd_sc_hd__a211o_2
*I *1539:X O *D sky130_fd_sc_hd__clkdlybuf4s25_1
*CAP
1 *1132:B1 0
2 *1123:A 4.7207e-05
3 *1319:A1 0
4 *1069:C1 0.00011784
5 *1539:X 0.000190811
6 *588:77 0.000793874
7 *588:58 0.000967079
8 *588:54 0.00135658
9 *588:35 0.00193477
10 *588:10 0.00101284
11 *1069:C1 *1537:A 5.3304e-05
12 *1069:C1 *596:79 0.000181919
13 *588:10 *1310:A1 5.3304e-05
14 *588:10 *1537:A 0
15 *588:10 *594:16 0.000126192
16 *588:35 *596:85 2.11215e-05
17 *588:35 *621:93 0.000602999
18 *588:54 *609:41 2.76272e-05
19 *588:54 *621:93 5.50106e-05
20 *643:DIODE *1069:C1 5.50049e-05
21 *643:DIODE *588:35 2.05503e-05
22 *1123:B *588:54 5.62433e-06
23 *1124:B *588:77 4.08664e-05
24 *1133:A2 *588:77 0.000437428
25 *1137:A1 *588:77 7.68979e-05
26 *1290:S *1123:A 0
27 *1290:S *588:54 0.000137788
28 *1319:A2 *588:35 5.23258e-05
29 *1319:A2 *588:54 4.2573e-05
30 *1319:B2 *588:54 1.09903e-05
31 *121:62 *588:77 0.000190682
32 *219:6 *588:77 0.000135037
33 *219:12 *588:77 0.00026967
34 *222:25 *588:54 0.000229155
35 *223:26 *588:54 0.000153013
36 *229:10 *588:54 0.000151825
37 *348:22 *588:54 0.000552786
38 *350:32 *588:54 0.000564853
39 *364:10 *588:54 4.77213e-05
40 *381:12 *588:10 5.50049e-05
41 *381:18 *588:10 3.28994e-05
42 *381:18 *588:35 5.32275e-05
43 *570:69 *588:58 4.82056e-05
44 *570:69 *588:77 4.27248e-05
45 *583:22 *588:10 3.56709e-05
46 *585:12 *1069:C1 0.000236857
47 *586:6 *588:54 0.000282333
*RES
1 *1539:X *588:10 41.5836 
2 *588:10 *1069:C1 41.9771 
3 *588:10 *588:35 27.3871 
4 *588:35 *1319:A1 23 
5 *588:35 *588:54 38.3864 
6 *588:54 *588:58 16.5743 
7 *588:58 *1123:A 23.8493 
8 *588:58 *588:77 42.7807 
9 *588:77 *1132:B1 23 
*END

*D_NET *589 0.00407749
*CONN
*I *1310:B2 I *D sky130_fd_sc_hd__a22o_2
*I *1126:A I *D sky130_fd_sc_hd__and2_2
*I *1127:A I *D sky130_fd_sc_hd__or2_2
*I *1067:A I *D sky130_fd_sc_hd__nand2_2
*I *1540:X O *D sky130_fd_sc_hd__clkdlybuf4s25_1
*CAP
1 *1310:B2 0
2 *1126:A 0
3 *1127:A 9.85799e-05
4 *1067:A 0
5 *1540:X 0.000161456
6 *589:35 0.000532657
7 *589:23 0.000504343
8 *589:16 0.000296413
9 *589:10 0.000387602
10 *1127:A *594:52 4.95081e-05
11 *1127:A *617:100 0.000355822
12 *589:10 *1084:A1 0.000135904
13 *589:10 *614:36 8.19644e-06
14 *589:10 *614:44 1.01436e-05
15 *589:10 *614:55 0.000125761
16 *589:16 *634:8 5.67058e-05
17 *589:23 *1310:A1 2.1819e-05
18 *589:35 *1310:A1 0.000119544
19 *589:35 *610:43 4.45778e-05
20 *589:35 *617:100 9.1069e-05
21 *1127:B *1127:A 8.43466e-05
22 *1310:A2 *589:35 0.000121707
23 *1310:B1 *589:35 5.58223e-05
24 *164:16 *589:35 2.82611e-05
25 *169:16 *589:16 0.000149365
26 *169:16 *589:23 0.000102389
27 *221:12 *1127:A 8.6949e-05
28 *221:20 *1127:A 5.50106e-05
29 *221:20 *589:35 6.58396e-05
30 *366:10 *589:35 0.000123766
31 *370:10 *589:35 5.79466e-05
32 *481:62 *589:35 5.3304e-05
33 *481:70 *589:35 5.29093e-05
34 *558:32 *1127:A 1.03836e-05
35 *558:32 *589:35 2.93845e-05
*RES
1 *1540:X *589:10 41.0036 
2 *589:10 *589:16 19.4536 
3 *589:16 *1067:A 23 
4 *589:16 *589:23 1.57429 
5 *589:23 *589:35 40.4193 
6 *589:35 *1127:A 27.4536 
7 *589:35 *1126:A 23 
8 *589:23 *1310:B2 23 
*END

*D_NET *590 0.00575179
*CONN
*I *1069:A2 I *D sky130_fd_sc_hd__a211o_2
*I *1311:A I *D sky130_fd_sc_hd__or2_2
*I *1540:A I *D sky130_fd_sc_hd__clkdlybuf4s25_1
*I *1541:X O *D sky130_fd_sc_hd__clkdlybuf4s25_1
*CAP
1 *1069:A2 0
2 *1311:A 0
3 *1540:A 0.000151555
4 *1541:X 0.000501187
5 *590:51 0.000208899
6 *590:33 0.000951956
7 *590:8 0.0013958
8 *1540:A *1084:A1 0
9 *1540:A *594:16 0
10 *1540:A *594:27 3.40395e-05
11 *590:8 *1068:D_N 2.93747e-05
12 *590:8 *1310:A1 4.75937e-05
13 *590:33 *615:48 4.53995e-05
14 *590:33 *617:100 0.000961089
15 *590:51 *1310:A1 1.09903e-05
16 *590:51 *620:38 1.24376e-05
17 *164:16 *590:33 9.64943e-05
18 *174:10 *590:51 0
19 *200:50 *590:33 2.36123e-05
20 *350:10 *590:51 7.38638e-05
21 *350:22 *590:33 9.77405e-05
22 *350:32 *590:33 1.17256e-05
23 *363:10 *590:33 0.000140939
24 *364:32 *590:33 0
25 *365:25 *590:33 5.54828e-05
26 *371:18 *590:33 0.000211505
27 *381:12 *590:8 0.000399297
28 *381:12 *590:51 9.45591e-05
29 *558:32 *590:33 1.71761e-05
30 *581:10 *590:51 7.75736e-06
31 *581:18 *590:51 0.000140259
32 *581:31 *590:51 3.10579e-05
*RES
1 *1541:X *590:8 44.3386 
2 *590:8 *1540:A 40.7861 
3 *590:8 *590:33 39.001 
4 *590:33 *1311:A 23 
5 *1541:X *590:51 42.8057 
6 *590:51 *1069:A2 38 
*END

*D_NET *591 0.0174012
*CONN
*I *1541:A I *D sky130_fd_sc_hd__clkdlybuf4s25_1
*I *644:DIODE I *D sky130_fd_sc_hd__diode_2
*I *1582:B I *D sky130_fd_sc_hd__nand4_1
*I *1542:X O *D sky130_fd_sc_hd__clkdlybuf4s25_1
*CAP
1 *1541:A 8.37909e-06
2 *644:DIODE 8.37909e-06
3 *1582:B 0.000345674
4 *1542:X 0
5 *591:29 0.00315402
6 *591:4 0.00349969
7 *1582:B *595:12 0.00043579
8 *591:29 *595:12 4.3198e-05
9 *591:29 *595:55 3.50938e-05
10 *591:29 *613:18 0.00017733
11 *591:29 *616:32 0.00556933
12 *591:29 *617:42 0.000125819
13 *591:29 *625:16 1.73439e-05
14 *591:29 *631:67 0.000110806
15 *1324:B *591:29 9.86551e-06
16 *257:30 *591:29 0.00091049
17 *260:12 *591:29 0.000181231
18 *324:22 *591:29 4.0212e-05
19 *381:12 *1541:A 5.67058e-05
20 *472:50 *591:29 0.000164619
21 *473:83 *591:29 8.65329e-05
22 *503:24 *591:29 0.0012806
23 *580:34 *591:29 0.000112877
24 *580:44 *591:29 0.000994939
25 *581:18 *1541:A 3.22879e-05
*RES
1 *1542:X *591:4 23 
2 *591:4 *1582:B 27.9093 
3 *591:4 *591:29 46.8133 
4 *591:29 *644:DIODE 38 
5 *644:DIODE *1541:A 46.6214 
*END

*D_NET *592 0.00465264
*CONN
*I *1129:A I *D sky130_fd_sc_hd__or2_2
*I *1064:A I *D sky130_fd_sc_hd__or2_2
*I *1130:B2 I *D sky130_fd_sc_hd__a221o_2
*I *1063:A I *D sky130_fd_sc_hd__nand2_2
*I *1543:X O *D sky130_fd_sc_hd__clkdlybuf4s25_1
*CAP
1 *1129:A 0.000588466
2 *1064:A 3.33417e-05
3 *1130:B2 0.000284059
4 *1063:A 4.83762e-05
5 *1543:X 0
6 *592:14 0.000530796
7 *592:10 0.000409854
8 *592:4 0.000766617
9 *1063:A *615:84 2.46906e-05
10 *1129:A *1543:A 0.000227882
11 *1129:A *593:6 0.000124306
12 *1130:B2 *615:84 5.80656e-05
13 *592:10 *1543:A 0.000142585
14 *1064:B *1064:A 0.000100805
15 *1065:A *1063:A 0.000100803
16 *1065:A *1130:B2 7.71518e-05
17 *1130:B1 *1130:B2 1.89095e-05
18 *1130:C1 *1130:B2 0.000140259
19 *1138:B *592:10 0
20 *1314:A1 *1064:A 1.21972e-05
21 *164:38 *1064:A 0.000142585
22 *167:21 *592:14 0.0001848
23 *168:10 *1130:B2 5.50049e-05
24 *368:6 *1129:A 0.000302643
25 *368:12 *592:10 0.000101071
26 *368:12 *592:14 3.61511e-05
27 *446:12 *1063:A 7.51453e-06
28 *446:12 *592:14 3.79779e-05
29 *446:22 *592:14 1.66821e-05
30 *558:10 *1129:A 4.9662e-05
31 *560:109 *1129:A 2.93845e-05
*RES
1 *1543:X *592:4 23 
2 *592:4 *592:10 18.1279 
3 *592:10 *592:14 18.6664 
4 *592:14 *1063:A 24.5743 
5 *592:14 *1130:B2 29.5302 
6 *592:10 *1064:A 39.5743 
7 *592:4 *1129:A 33.1914 
*END

*D_NET *593 0.00205071
*CONN
*I *1313:B2 I *D sky130_fd_sc_hd__a221o_2
*I *1543:A I *D sky130_fd_sc_hd__clkdlybuf4s25_1
*I *1544:X O *D sky130_fd_sc_hd__clkdlybuf4s25_1
*CAP
1 *1313:B2 0
2 *1543:A 0.000223042
3 *1544:X 5.78102e-05
4 *593:23 0.000108116
5 *593:6 0.000388968
6 *1543:A *594:52 0.000343502
7 *1543:A *617:100 1.24376e-05
8 *593:23 *607:49 9.2467e-06
9 *1129:A *1543:A 0.000227882
10 *1129:A *593:6 0.000124306
11 *1130:C1 *593:23 1.05441e-05
12 *1138:B *593:23 2.17782e-05
13 *1313:B1 *593:23 1.37039e-05
14 *158:27 *593:23 7.38547e-05
15 *160:60 *593:23 0.00013135
16 *368:6 *1543:A 9.1624e-05
17 *368:6 *593:6 6.99589e-05
18 *592:10 *1543:A 0.000142585
*RES
1 *1544:X *593:6 24.5743 
2 *593:6 *1543:A 29.3593 
3 *593:6 *593:23 32.408 
4 *593:23 *1313:B2 23 
*END

*D_NET *594 0.00917054
*CONN
*I *1544:A I *D sky130_fd_sc_hd__clkdlybuf4s25_1
*I *1068:A I *D sky130_fd_sc_hd__or4bb_2
*I *1069:A1 I *D sky130_fd_sc_hd__a211o_2
*I *1545:X O *D sky130_fd_sc_hd__clkdlybuf4s25_1
*CAP
1 *1544:A 0
2 *1068:A 0
3 *1069:A1 0
4 *1545:X 0
5 *594:52 0.000296369
6 *594:40 0.00163614
7 *594:27 0.001803
8 *594:16 0.000623786
9 *594:4 0.00108701
10 *594:16 *596:79 3.97181e-05
11 *594:27 *1084:A1 0
12 *594:27 *614:36 4.19437e-05
13 *594:27 *617:73 1.74874e-06
14 *594:40 *1084:A1 0
15 *594:40 *617:73 5.90401e-05
16 *594:52 *617:100 9.69175e-05
17 *1127:A *594:52 4.95081e-05
18 *1127:B *594:52 9.5877e-05
19 *1307:A1 *594:40 3.06741e-05
20 *1307:B1 *594:40 0.000140927
21 *1540:A *594:16 0
22 *1540:A *594:27 3.40395e-05
23 *1543:A *594:52 0.000343502
24 *170:27 *594:27 2.75733e-06
25 *170:27 *594:40 1.37136e-05
26 *200:50 *594:40 2.03764e-06
27 *221:8 *594:52 5.79427e-05
28 *221:12 *594:52 5.50049e-05
29 *350:22 *594:40 9.03964e-06
30 *368:6 *594:52 0.000230492
31 *381:18 *594:16 0.000150219
32 *381:18 *594:27 0
33 *558:28 *594:52 0.000316039
34 *558:30 *594:40 5.3304e-05
35 *558:30 *594:52 9.41704e-05
36 *558:32 *594:40 0.000648819
37 *558:127 *594:52 3.33082e-05
38 *581:46 *594:40 0.000355029
39 *581:67 *594:40 0.000222953
40 *583:22 *594:16 0.000181125
41 *585:12 *594:16 0.000233565
42 *585:28 *594:40 4.6318e-06
43 *588:10 *594:16 0.000126192
*RES
1 *1545:X *594:4 23 
2 *594:4 *594:16 40.3986 
3 *594:16 *1069:A1 23 
4 *594:4 *594:27 21.2143 
5 *594:27 *1068:A 38 
6 *594:27 *594:40 35.01 
7 *594:40 *594:52 40.6886 
8 *594:52 *1544:A 23 
*END

*D_NET *595 0.0151737
*CONN
*I *1545:A I *D sky130_fd_sc_hd__clkdlybuf4s25_1
*I *1582:C I *D sky130_fd_sc_hd__nand4_1
*I *1546:X O *D sky130_fd_sc_hd__clkdlybuf4s25_1
*CAP
1 *1545:A 0
2 *1582:C 0
3 *1546:X 0
4 *595:55 0.00165853
5 *595:41 0.00394727
6 *595:12 0.000870621
7 *595:6 0.00315936
8 *595:12 *617:42 0.000183644
9 *595:12 *618:46 0.000445855
10 *595:12 *625:20 0
11 *595:41 *1269:B1_N 3.7122e-06
12 *595:55 *613:30 0.000222132
13 *595:55 *614:28 7.81946e-05
14 *595:55 *614:36 2.05503e-05
15 *595:55 *625:22 0.000393004
16 *595:55 *630:72 8.06346e-05
17 *595:55 *631:67 0.000709657
18 *1087:A2_N *595:55 0.000139352
19 *1087:B1 *595:55 7.38543e-05
20 *1088:B1 *595:55 0.00014261
21 *1088:B2 *595:55 0.000178478
22 *1091:A *595:55 5.41288e-05
23 *1455:D *595:41 5.46212e-05
24 *1456:D *595:41 7.10068e-06
25 *1582:A *595:12 0.000112024
26 *1582:B *595:12 0.00043579
27 *74:8 *595:12 4.77164e-06
28 *74:8 *595:41 3.56594e-05
29 *134:10 *595:41 0.000146256
30 *141:34 *595:41 5.30652e-05
31 *184:10 *595:55 0.00014196
32 *188:8 *595:41 2.68376e-07
33 *188:8 *595:55 0.000519487
34 *195:12 *595:41 6.58415e-06
35 *258:30 *595:41 9.63178e-05
36 *258:44 *595:41 7.60782e-05
37 *328:14 *595:12 2.01129e-05
38 *328:14 *595:41 6.94112e-06
39 *329:10 *595:41 5.3304e-05
40 *449:36 *595:41 0.000251436
41 *449:38 *595:41 0.000145188
42 *473:83 *595:55 9.23705e-06
43 *506:10 *595:41 0.000140494
44 *580:34 *595:41 0.000380105
45 *583:22 *595:55 3.70187e-05
46 *591:29 *595:12 4.3198e-05
47 *591:29 *595:55 3.50938e-05
*RES
1 *1546:X *595:6 38 
2 *595:6 *595:12 33.2286 
3 *595:12 *1582:C 23 
4 *595:6 *595:41 49.9087 
5 *595:41 *595:55 48.769 
6 *595:55 *1545:A 38 
*END

*D_NET *596 0.0232506
*CONN
*I *1090:A2 I *D sky130_fd_sc_hd__a22o_2
*I *1391:S I *D sky130_fd_sc_hd__mux2_1
*I *1392:S I *D sky130_fd_sc_hd__mux2_1
*I *1019:A I *D sky130_fd_sc_hd__inv_2
*I *1547:X O *D sky130_fd_sc_hd__clkdlybuf4s25_1
*CAP
1 *1090:A2 1.26847e-05
2 *1391:S 0
3 *1392:S 0
4 *1019:A 0.000107279
5 *1547:X 0.00035918
6 *596:100 0.000687881
7 *596:85 0.00167479
8 *596:79 0.00170661
9 *596:61 0.000845806
10 *596:55 0.000751467
11 *596:45 0.00192872
12 *596:12 0.00175713
13 *1019:A *642:DIODE 0.000112797
14 *596:12 *617:61 0.000444948
15 *596:12 *621:46 0.000215611
16 *596:45 *612:54 3.75966e-05
17 *596:45 *617:61 0.000710235
18 *596:45 *620:30 0.000942975
19 *596:45 *621:46 0.00109363
20 *596:45 *630:44 0.00114527
21 *596:55 *617:61 0.00052409
22 *596:55 *617:73 1.17256e-05
23 *596:55 *630:72 0.000447288
24 *596:85 *1537:A 8.30566e-06
25 *596:85 *611:12 0.000348172
26 *596:85 *611:14 0.0002232
27 *596:85 *611:25 7.14474e-05
28 *596:85 *621:74 0.000124168
29 *596:100 *1346:A1 0.000180212
30 *596:100 *636:12 2.3191e-05
31 *596:100 *636:31 0.000352021
32 *596:100 *637:26 0.000194055
33 *643:DIODE *596:85 3.41998e-06
34 *1006:A *596:85 0
35 *1069:C1 *596:79 0.000181919
36 *1070:B *596:79 0.000225393
37 *1072:A *596:79 3.56477e-05
38 *1087:A2_N *596:61 0.000126192
39 *1090:B2 *1090:A2 3.31428e-05
40 *1090:B2 *596:79 2.42565e-05
41 *1098:B *596:55 0
42 *1180:A *596:79 9.5877e-05
43 *1180:B *596:79 5.63426e-05
44 *1256:B *596:85 1.12487e-05
45 *1270:A1 *1019:A 2.75733e-06
46 *1280:B *596:45 2.11066e-05
47 *1420:CLK *596:79 0.000175657
48 *74:8 *596:12 1.79749e-05
49 *75:8 *596:45 0.000153052
50 *123:52 *596:55 1.09111e-05
51 *174:8 *596:79 0.000352421
52 *174:40 *596:79 0.000648028
53 *174:40 *596:85 0.00032586
54 *187:10 *596:55 0
55 *187:10 *596:61 0.000128291
56 *198:41 *596:85 9.10209e-05
57 *198:56 *596:85 0.000218962
58 *211:24 *596:55 6.82841e-05
59 *258:44 *596:45 0.000116701
60 *299:65 *596:85 3.3607e-05
61 *318:14 *596:85 0
62 *318:14 *596:100 0
63 *327:10 *1019:A 2.25693e-05
64 *327:10 *596:12 0
65 *337:12 *596:45 1.36121e-05
66 *381:18 *596:85 0
67 *398:22 *596:100 0.000373385
68 *399:6 *596:100 9.0102e-05
69 *399:16 *596:100 4.40965e-05
70 *400:8 *596:100 9.36631e-05
71 *449:22 *596:55 0.000361022
72 *449:83 *596:12 7.17297e-05
73 *449:94 *596:12 0.000154164
74 *456:212 *596:55 0.000181797
75 *459:20 *596:100 0.000139357
76 *474:43 *596:79 4.75206e-05
77 *507:8 *596:55 5.62433e-06
78 *508:48 *596:85 0
79 *508:48 *596:100 0
80 *514:49 *596:100 0.00110819
81 *561:35 *596:79 0.000247141
82 *562:28 *596:45 1.24585e-05
83 *584:70 *596:45 1.05658e-05
84 *585:12 *596:79 1.21972e-05
85 *588:35 *596:85 2.11215e-05
86 *594:16 *596:79 3.97181e-05
*RES
1 *1547:X *596:12 49.967 
2 *596:12 *1019:A 47.7296 
3 *596:12 *596:45 46.7588 
4 *596:45 *596:55 43.8579 
5 *596:55 *596:61 31.9057 
6 *596:61 *596:79 34.9168 
7 *596:79 *596:85 21.3564 
8 *596:85 *1392:S 38 
9 *596:85 *596:100 35.5071 
10 *596:100 *1391:S 23 
11 *596:61 *1090:A2 23.6836 
*END

*D_NET *597 0.00950801
*CONN
*I *1269:B1_N I *D sky130_fd_sc_hd__a21boi_2
*I *1440:RESET_B I *D sky130_fd_sc_hd__dfrtp_2
*I *1581:A I *D sky130_fd_sc_hd__and2_1
*I *1441:RESET_B I *D sky130_fd_sc_hd__dfrtp_2
*I *1439:RESET_B I *D sky130_fd_sc_hd__dfrtp_2
*I *1445:RESET_B I *D sky130_fd_sc_hd__dfrtp_2
*I *1444:RESET_B I *D sky130_fd_sc_hd__dfrtp_2
*I *1264:A I *D sky130_fd_sc_hd__and3_2
*I *1442:RESET_B I *D sky130_fd_sc_hd__dfrtp_2
*I *1443:RESET_B I *D sky130_fd_sc_hd__dfrtp_2
*I *1548:X O *D sky130_fd_sc_hd__clkdlybuf4s25_1
*CAP
1 *1269:B1_N 5.6817e-05
2 *1440:RESET_B 0.000270396
3 *1581:A 0
4 *1441:RESET_B 0.000213579
5 *1439:RESET_B 0.000439342
6 *1445:RESET_B 7.37567e-05
7 *1444:RESET_B 0
8 *1264:A 0
9 *1442:RESET_B 0.000509776
10 *1443:RESET_B 0.000895356
11 *1548:X 0.000338666
12 *597:94 0.000241714
13 *597:65 0.000563748
14 *597:42 0.000346238
15 *597:6 0.000817885
16 *1442:RESET_B *626:28 0.000261724
17 *1443:RESET_B *1531:A 5.56356e-05
18 *1443:RESET_B *624:45 0.00026025
19 *1443:RESET_B *624:59 0.000113633
20 *597:6 *1548:A 5.50049e-05
21 *1264:C *597:6 5.50106e-05
22 *1440:D *1440:RESET_B 2.93335e-05
23 *1579:clk *1439:RESET_B 0.000369371
24 *1579:clk *597:65 9.83066e-05
25 *1579:clk *597:94 0
26 *127:28 *597:65 0
27 *129:24 *597:6 9.82347e-05
28 *137:24 *597:94 0
29 *138:22 *1439:RESET_B 0.00037414
30 *138:22 *597:65 0.00020762
31 *257:30 *1440:RESET_B 0.000131852
32 *258:66 *1443:RESET_B 0.000151929
33 *311:34 *1443:RESET_B 0.000115445
34 *312:20 *1442:RESET_B 4.87918e-05
35 *312:35 *597:42 0.000164054
36 *312:35 *597:65 3.5243e-05
37 *313:10 *1443:RESET_B 5.3304e-05
38 *313:10 *597:6 0.000139352
39 *321:18 *1440:RESET_B 4.60255e-05
40 *321:33 *1443:RESET_B 7.15126e-05
41 *322:24 *597:65 0
42 *324:22 *1440:RESET_B 6.36011e-05
43 *449:38 *1269:B1_N 4.34745e-05
44 *449:44 *1269:B1_N 0.000189364
45 *449:44 *1440:RESET_B 0.000260339
46 *449:160 *1445:RESET_B 0.000132028
47 *449:160 *597:42 0.00011352
48 *489:10 *1439:RESET_B 1.94812e-05
49 *489:28 *597:65 0
50 *490:10 *1269:B1_N 0.000180991
51 *490:26 *1440:RESET_B 9.05654e-05
52 *491:6 *1440:RESET_B 4.81382e-05
53 *491:36 *597:65 2.80201e-05
54 *492:26 *1442:RESET_B 0.000111276
55 *492:37 *1442:RESET_B 0.000160591
56 *492:37 *1445:RESET_B 0
57 *492:37 *597:42 0
58 *493:6 *1443:RESET_B 9.16355e-05
59 *571:40 *597:6 0.000179311
60 *577:26 *1442:RESET_B 1.40533e-05
61 *577:26 *597:42 7.48591e-05
62 *578:16 *1443:RESET_B 0
63 *595:41 *1269:B1_N 3.7122e-06
*RES
1 *1548:X *597:6 29.3386 
2 *597:6 *1443:RESET_B 39.6218 
3 *1443:RESET_B *1442:RESET_B 34.2154 
4 *597:6 *1264:A 23 
5 *1443:RESET_B *597:42 20.7793 
6 *597:42 *1444:RESET_B 15 
7 *597:42 *1445:RESET_B 16.9057 
8 *1442:RESET_B *597:65 21.5457 
9 *597:65 *1439:RESET_B 21.1211 
10 *597:65 *1441:RESET_B 15 
11 *1439:RESET_B *597:94 33.6354 
12 *597:94 *1581:A 23 
13 *1441:RESET_B *1440:RESET_B 35.8621 
14 *1440:RESET_B *1269:B1_N 25.9311 
*END

*D_NET *598 0.0181252
*CONN
*I *1426:RESET_B I *D sky130_fd_sc_hd__dfrtp_2
*I *1434:RESET_B I *D sky130_fd_sc_hd__dfrtp_2
*I *1427:SET_B I *D sky130_fd_sc_hd__dfstp_2
*I *1429:RESET_B I *D sky130_fd_sc_hd__dfrtp_2
*I *1432:RESET_B I *D sky130_fd_sc_hd__dfrtp_2
*I *1425:RESET_B I *D sky130_fd_sc_hd__dfrtp_2
*I *1431:RESET_B I *D sky130_fd_sc_hd__dfrtp_2
*I *1423:RESET_B I *D sky130_fd_sc_hd__dfrtp_2
*I *1436:RESET_B I *D sky130_fd_sc_hd__dfrtp_2
*I *1424:RESET_B I *D sky130_fd_sc_hd__dfrtp_2
*I *1549:X O *D sky130_fd_sc_hd__clkdlybuf4s25_1
*CAP
1 *1426:RESET_B 0.000282386
2 *1434:RESET_B 0.000394983
3 *1427:SET_B 0.000225631
4 *1429:RESET_B 0
5 *1432:RESET_B 9.40464e-05
6 *1425:RESET_B 7.63922e-05
7 *1431:RESET_B 0.000730481
8 *1423:RESET_B 0.000844701
9 *1436:RESET_B 0.000582576
10 *1424:RESET_B 0.00192218
11 *1549:X 4.75759e-05
12 *598:120 0.000677369
13 *598:96 0.000249717
14 *598:94 0.000381301
15 *598:72 0.00128231
16 *598:44 0.00107581
17 *598:40 0.00195286
18 *598:8 0.000140857
19 *1436:RESET_B *602:126 4.70852e-05
20 *598:40 *1433:RESET_B 1.43557e-05
21 uio_oe[2] *598:40 1.60026e-05
22 uio_out[5] *598:40 2.05503e-05
23 uio_out[6] *598:40 2.47304e-05
24 *1170:A *1436:RESET_B 0.000168776
25 *1170:A *598:44 0.000161888
26 *1170:B *1436:RESET_B 7.68979e-05
27 *1170:B *598:44 9.7937e-05
28 *1190:B *598:44 0
29 *1194:B *598:40 9.55481e-05
30 *1195:A *598:40 0.000141879
31 *1196:A *598:40 5.50106e-05
32 *1196:B *598:40 2.93747e-05
33 *1259:A *1431:RESET_B 9.67842e-05
34 *1259:A *1434:RESET_B 3.62181e-05
35 *1259:B *1434:RESET_B 0.000169706
36 *1334:A1 *1423:RESET_B 5.62786e-05
37 *1334:C1 *1423:RESET_B 0.000159197
38 *1334:C1 *598:72 2.33744e-05
39 *1336:A *598:40 0.000324665
40 *1338:A1 *1427:SET_B 3.2128e-05
41 *1338:A1 *598:96 2.68021e-05
42 *1424:D *598:40 8.1796e-05
43 *1470:CLK *1424:RESET_B 4.67488e-05
44 *25:10 *598:72 2.87922e-05
45 *27:10 *1426:RESET_B 0.000222287
46 *37:26 *598:40 4.25785e-05
47 *110:10 *1431:RESET_B 9.5877e-05
48 *112:10 *1426:RESET_B 0
49 *112:10 *1434:RESET_B 0
50 *173:47 *598:40 0.000450452
51 *173:66 *1436:RESET_B 1.13589e-05
52 *254:8 *1436:RESET_B 8.19018e-06
53 *256:24 *1431:RESET_B 0.000322717
54 *256:24 *598:72 0.00014144
55 *260:24 *598:40 0
56 *262:18 *1426:RESET_B 0
57 *266:10 *598:40 7.03766e-05
58 *267:8 *598:40 0
59 *300:32 *1436:RESET_B 4.96717e-05
60 *310:10 *1436:RESET_B 1.49083e-05
61 *320:12 *1434:RESET_B 0.000299839
62 *394:8 *1427:SET_B 9.88678e-05
63 *394:20 *1425:RESET_B 0
64 *394:20 *1426:RESET_B 0
65 *394:20 *1434:RESET_B 0
66 *457:108 *1431:RESET_B 0.000132736
67 *460:10 *1431:RESET_B 1.05235e-05
68 *461:54 *598:40 0.000161832
69 *461:81 *598:8 0.000110922
70 *462:12 *1434:RESET_B 9.05654e-05
71 *462:50 *598:40 3.56036e-06
72 *463:8 *1436:RESET_B 0.000101527
73 *463:40 *1436:RESET_B 0.000598478
74 *464:29 *1436:RESET_B 0.000205824
75 *466:8 *1424:RESET_B 0.00013273
76 *466:8 *598:40 0.000198829
77 *467:24 *598:40 4.5051e-05
78 *467:28 *598:40 5.41385e-05
79 *468:10 *598:40 8.94394e-05
80 *468:22 *1423:RESET_B 0.000221084
81 *469:14 *598:44 0
82 *469:30 *1423:RESET_B 9.41704e-05
83 *471:52 *598:8 0.000114092
84 *472:10 *1426:RESET_B 7.80291e-05
85 *473:10 *1427:SET_B 8.41115e-05
86 *492:50 *1427:SET_B 6.9327e-05
87 *492:50 *1432:RESET_B 3.63453e-05
88 *492:50 *598:96 8.08508e-05
89 *495:56 *1432:RESET_B 6.13742e-05
90 *495:56 *598:96 3.88739e-05
91 *572:10 *598:96 0.000110913
92 *572:20 *1427:SET_B 0
93 *573:47 *1436:RESET_B 0.000377645
*RES
1 *1549:X *598:8 39.5536 
2 *598:8 *1424:RESET_B 16.9782 
3 *1424:RESET_B *598:40 43.8011 
4 *598:40 *598:44 10.7861 
5 *598:44 *1436:RESET_B 28.3918 
6 *598:44 *1423:RESET_B 22.2189 
7 *1423:RESET_B *598:72 6.90821 
8 *598:72 *1431:RESET_B 13.4332 
9 *598:72 *1425:RESET_B 31.5536 
10 *1431:RESET_B *598:94 15 
11 *598:94 *598:96 4.01857 
12 *598:96 *1432:RESET_B 16.9057 
13 *598:96 *1429:RESET_B 15 
14 *598:94 *1427:SET_B 20.7793 
15 *1425:RESET_B *598:120 15 
16 *598:120 *1434:RESET_B 23.5654 
17 *598:120 *1426:RESET_B 21.4732 
*END

*D_NET *599 0.0144065
*CONN
*I *1446:RESET_B I *D sky130_fd_sc_hd__dfrtp_2
*I *1548:A I *D sky130_fd_sc_hd__clkdlybuf4s25_1
*I *1283:A I *D sky130_fd_sc_hd__and3_2
*I *1221:A I *D sky130_fd_sc_hd__and3_2
*I *1248:A I *D sky130_fd_sc_hd__and3_2
*I *1278:A I *D sky130_fd_sc_hd__and3_2
*I *1255:B I *D sky130_fd_sc_hd__and3b_2
*I *1550:X O *D sky130_fd_sc_hd__clkdlybuf4s25_1
*CAP
1 *1446:RESET_B 0.000218516
2 *1548:A 1.50079e-05
3 *1283:A 0
4 *1221:A 0.000156523
5 *1248:A 0
6 *1278:A 0
7 *1255:B 6.72658e-05
8 *1550:X 0.000151459
9 *599:68 0.000608536
10 *599:56 0.0007122
11 *599:49 0.000942271
12 *599:35 0.00107533
13 *599:33 0.000952254
14 *599:18 0.0010354
15 *599:10 0.000764097
16 *599:18 *602:126 6.62982e-06
17 *599:35 *629:28 8.34128e-05
18 *599:49 *629:28 2.54187e-05
19 uio_oe[6] *599:10 0.000207737
20 *1209:A1 *1446:RESET_B 9.41704e-05
21 *1255:A_N *599:18 0.000107466
22 *1255:A_N *599:33 0.000139357
23 *1255:C *599:18 1.03955e-05
24 *1283:C *599:56 5.50106e-05
25 *71:10 *1221:A 5.67058e-05
26 *72:16 *599:18 0.000386257
27 *129:24 *1548:A 5.50049e-05
28 *142:22 *599:68 0
29 *176:10 *599:18 0.000297695
30 *202:22 *599:49 0.000237021
31 *202:22 *599:68 5.3304e-05
32 *275:22 *1446:RESET_B 2.93747e-05
33 *275:22 *599:35 0.000456408
34 *275:30 *1446:RESET_B 0.000181564
35 *276:16 *1446:RESET_B 0.00051227
36 *276:16 *599:33 2.98648e-05
37 *284:82 *599:68 2.90698e-05
38 *299:28 *1221:A 0.000295601
39 *299:28 *599:68 9.58714e-05
40 *299:38 *599:68 6.07611e-06
41 *312:8 *599:68 0.000108913
42 *313:26 *599:35 0.000208721
43 *313:26 *599:49 0.000153188
44 *314:39 *599:68 3.34818e-06
45 *325:28 *599:49 0.000128632
46 *330:28 *599:68 7.89973e-05
47 *330:38 *599:56 5.3304e-05
48 *336:6 *599:49 5.3304e-05
49 *336:6 *599:56 9.41704e-05
50 *336:17 *599:56 0.000462582
51 *336:17 *599:68 5.99567e-06
52 *449:94 *599:49 6.97654e-05
53 *449:111 *599:35 6.5293e-05
54 *449:111 *599:49 6.63112e-05
55 *449:190 *599:68 2.80852e-05
56 *463:14 *599:10 5.3304e-05
57 *488:8 *1446:RESET_B 2.53675e-05
58 *488:8 *599:35 1.83564e-05
59 *503:10 *599:49 2.22614e-05
60 *505:38 *599:68 5.6478e-05
61 *562:36 *599:56 7.65282e-05
62 *562:51 *599:18 8.40621e-05
63 *568:10 *599:33 9.62666e-05
64 *569:26 *599:33 0.000209405
65 *574:23 *1446:RESET_B 0
66 *574:41 *599:10 0.000209836
67 *577:26 *599:49 0.000208297
68 *577:43 *599:49 0.000664393
69 *578:10 *599:49 5.43589e-05
70 *578:16 *599:49 7.47186e-05
71 *578:56 *599:49 0.000766748
72 *597:6 *1548:A 5.50049e-05
*RES
1 *1550:X *599:10 41.5836 
2 *599:10 *599:18 26.2686 
3 *599:18 *1255:B 24.1186 
4 *599:18 *599:33 22.7886 
5 *599:33 *599:35 8.59643 
6 *599:35 *599:49 41.2602 
7 *599:49 *1278:A 23 
8 *599:49 *599:56 6.33857 
9 *599:56 *599:68 37.6436 
10 *599:68 *1248:A 23 
11 *599:68 *1221:A 26.48 
12 *599:56 *1283:A 23 
13 *599:35 *1548:A 38.6214 
14 *599:33 *1446:RESET_B 21.6389 
*END

*D_NET *600 0.00435971
*CONN
*I *1459:SET_B I *D sky130_fd_sc_hd__dfstp_2
*I *1457:SET_B I *D sky130_fd_sc_hd__dfstp_2
*I *1458:SET_B I *D sky130_fd_sc_hd__dfstp_2
*I *1460:RESET_B I *D sky130_fd_sc_hd__dfrtp_2
*I *1577:A I *D sky130_fd_sc_hd__clkbuf_2
*I *1551:X O *D sky130_fd_sc_hd__clkdlybuf4s25_1
*CAP
1 *1459:SET_B 0.000176118
2 *1457:SET_B 5.52758e-05
3 *1458:SET_B 0.000398623
4 *1460:RESET_B 0.000417492
5 *1577:A 0
6 *1551:X 0.000155378
7 *600:40 0.00054377
8 *600:38 0.000649884
9 *600:12 0.000134648
10 *600:6 0.000323624
11 *600:6 *602:20 0.00014218
12 *1153:B *600:38 4.98718e-06
13 *1154:B1 *600:12 0
14 *1154:B1 *600:38 3.26409e-05
15 *1458:D *1458:SET_B 3.71369e-05
16 *1460:CLK *600:12 0
17 *48:10 *1457:SET_B 3.44383e-05
18 *50:8 *1458:SET_B 0.000108506
19 *50:8 *600:38 3.26003e-05
20 *50:8 *600:40 5.10756e-05
21 *51:10 *600:38 0.000138708
22 *52:6 *1460:RESET_B 9.98797e-05
23 *52:6 *600:6 2.93747e-05
24 *135:8 *1458:SET_B 0
25 *236:10 *600:38 4.21594e-06
26 *237:8 *600:38 0
27 *238:60 *1460:RESET_B 0.000166381
28 *238:60 *600:6 0.000349813
29 *244:69 *600:12 0
30 *244:69 *600:38 4.98765e-05
31 *246:10 *600:38 0.000134012
32 *477:26 *1458:SET_B 0
33 *479:18 *1459:SET_B 7.75829e-05
34 *528:8 *600:6 1.14876e-05
*RES
1 *1551:X *600:6 27.4329 
2 *600:6 *600:12 31.9057 
3 *600:12 *1577:A 23 
4 *600:6 *1460:RESET_B 1.97821 
5 *1460:RESET_B *600:38 22.6643 
6 *600:38 *600:40 1.55357 
7 *600:40 *1458:SET_B 21.9911 
8 *600:40 *1457:SET_B 16.0254 
9 *600:38 *1459:SET_B 17.6204 
*END

*D_NET *601 0.0128446
*CONN
*I *1284:A1 I *D sky130_fd_sc_hd__a21o_2
*I *1139:B1 I *D sky130_fd_sc_hd__o41a_2
*I *1465:SET_B I *D sky130_fd_sc_hd__dfstp_2
*I *1466:RESET_B I *D sky130_fd_sc_hd__dfrtp_2
*I *1461:RESET_B I *D sky130_fd_sc_hd__dfrtp_2
*I *1462:SET_B I *D sky130_fd_sc_hd__dfstp_2
*I *1577:X O *D sky130_fd_sc_hd__clkbuf_2
*CAP
1 *1284:A1 0.000389557
2 *1139:B1 0.000269135
3 *1465:SET_B 0.000737572
4 *1466:RESET_B 0.00126928
5 *1461:RESET_B 0.000363937
6 *1462:SET_B 0.000343763
7 *1577:X 0.000343763
8 *601:68 0.00103916
9 *601:19 0.00127612
10 *1139:B1 *610:70 0.000358855
11 *1284:A1 *610:70 0.000515797
12 *1466:RESET_B *624:75 0.0023055
13 *1124:B *1139:B1 0.000138444
14 *1139:A3 *1139:B1 4.9662e-05
15 *1419:CLK *1284:A1 0.000259534
16 *1419:CLK *601:68 5.50106e-05
17 *1578:addr[5] *1466:RESET_B 0.0017219
18 *58:6 *1466:RESET_B 4.65845e-05
19 *121:79 *1465:SET_B 3.74475e-05
20 *151:72 *1465:SET_B 0.000178326
21 *180:70 *1465:SET_B 0
22 *180:83 *1465:SET_B 8.28736e-05
23 *181:6 *1139:B1 6.17437e-06
24 *189:12 *1465:SET_B 4.30894e-05
25 *198:14 *601:68 3.01205e-05
26 *200:26 *1466:RESET_B 2.11066e-05
27 *220:10 *1139:B1 3.54739e-05
28 *237:12 *1462:SET_B 1.39431e-05
29 *238:50 *1461:RESET_B 0
30 *248:8 *1461:RESET_B 2.78273e-05
31 *347:14 *1465:SET_B 6.86608e-05
32 *448:17 *1139:B1 4.80633e-05
33 *448:17 *601:68 2.62931e-05
34 *448:30 *1466:RESET_B 8.79516e-05
35 *480:87 *1461:RESET_B 0
36 *481:6 *1462:SET_B 2.21476e-05
37 *481:14 *1461:RESET_B 8.12437e-05
38 *481:20 *1461:RESET_B 3.8512e-05
39 *481:120 *1461:RESET_B 5.08953e-05
40 *485:21 *1466:RESET_B 2.31116e-05
41 *486:50 *1284:A1 0.000206487
42 *523:38 *1461:RESET_B 0
43 *551:61 *1284:A1 3.54739e-05
44 *555:17 *1139:B1 6.48e-05
45 *555:17 *1284:A1 9.17422e-05
46 *587:16 *1465:SET_B 3.92355e-05
*RES
1 *1577:X *1462:SET_B 27.5261 
2 *1462:SET_B *601:19 15 
3 *601:19 *1461:RESET_B 20.7793 
4 *601:19 *1466:RESET_B 36.7816 
5 *1466:RESET_B *1465:SET_B 37.54 
6 *1465:SET_B *601:68 20.0025 
7 *601:68 *1139:B1 44.6493 
8 *601:68 *1284:A1 47.6529 
*END

*D_NET *602 0.0327706
*CONN
*I *1467:RESET_B I *D sky130_fd_sc_hd__dfrtp_2
*I *1234:A I *D sky130_fd_sc_hd__and3_2
*I *1241:A I *D sky130_fd_sc_hd__and3_2
*I *1550:A I *D sky130_fd_sc_hd__clkdlybuf4s25_1
*I *1227:B I *D sky130_fd_sc_hd__and3b_2
*I *1464:SET_B I *D sky130_fd_sc_hd__dfstp_2
*I *1551:A I *D sky130_fd_sc_hd__clkdlybuf4s25_1
*I *1463:RESET_B I *D sky130_fd_sc_hd__dfrtp_2
*I *1552:X O *D sky130_fd_sc_hd__clkdlybuf4s25_1
*CAP
1 *1467:RESET_B 0.000181171
2 *1234:A 0
3 *1241:A 0
4 *1550:A 0
5 *1227:B 0.000153354
6 *1464:SET_B 0.00041486
7 *1551:A 0
8 *1463:RESET_B 0.000576559
9 *1552:X 0.000390737
10 *602:126 0.000820001
11 *602:116 0.00145835
12 *602:102 0.00113579
13 *602:94 0.00108308
14 *602:73 0.00374992
15 *602:67 0.00336641
16 *602:20 0.000644951
17 *602:10 0.000699682
18 *602:73 *1578:addr[1] 0.0011439
19 *602:73 *624:75 7.89435e-05
20 *1112:A *602:116 7.44257e-05
21 *1234:C *602:102 5.3304e-05
22 *1241:C *602:102 9.41704e-05
23 *1245:A1 *602:116 2.31591e-05
24 *1255:C *602:126 5.50049e-05
25 *1436:CLK *602:126 0.000132817
26 *1436:RESET_B *602:126 4.70852e-05
27 *1463:CLK *1464:SET_B 7.75274e-05
28 *1570:A *1463:RESET_B 1.05441e-05
29 *54:8 *1463:RESET_B 7.43183e-05
30 *55:12 *1464:SET_B 0
31 *55:12 *1467:RESET_B 1.05658e-05
32 *68:8 *602:73 2.5343e-05
33 *69:10 *602:94 0.000152741
34 *117:10 *602:126 4.9979e-05
35 *141:28 *602:116 0
36 *143:10 *1227:B 0.000178517
37 *156:18 *1467:RESET_B 0.000307893
38 *156:18 *602:73 0.00168777
39 *173:66 *602:116 0.000149697
40 *176:10 *602:126 8.95826e-05
41 *200:14 *1464:SET_B 8.92585e-05
42 *200:26 *602:73 9.45723e-05
43 *244:69 *602:10 0.000487147
44 *253:10 *602:67 0.000102924
45 *259:24 *602:73 0.000374212
46 *279:10 *602:73 9.17918e-05
47 *279:10 *602:94 7.89973e-05
48 *283:36 *602:102 0.000264614
49 *297:10 *602:94 5.86334e-05
50 *298:8 *602:94 7.49001e-05
51 *299:20 *602:94 0.000101099
52 *299:20 *602:116 0.000537407
53 *300:32 *602:116 0.000212742
54 *308:10 *602:116 1.5769e-05
55 *310:10 *602:116 1.31913e-05
56 *310:10 *602:126 3.37484e-06
57 *388:10 *602:126 7.15126e-05
58 *405:32 *1463:RESET_B 0.000272082
59 *405:32 *1464:SET_B 0.00039742
60 *405:32 *602:20 0.000143655
61 *446:22 *602:73 4.41864e-05
62 *448:45 *1464:SET_B 1.40087e-05
63 *449:234 *602:73 2.68142e-05
64 *449:234 *602:94 0.000201629
65 *463:14 *602:126 0.000137651
66 *473:65 *602:94 0.000162734
67 *478:28 *1467:RESET_B 0.000485456
68 *478:28 *602:73 0.00201804
69 *480:41 *1467:RESET_B 1.05658e-05
70 *482:8 *1463:RESET_B 7.51159e-05
71 *483:20 *602:67 8.82057e-05
72 *483:27 *602:67 7.13521e-05
73 *501:15 *602:116 8.84338e-05
74 *501:26 *602:116 7.12002e-05
75 *523:38 *602:10 0.000111615
76 *528:8 *602:20 2.93845e-05
77 *528:14 *602:10 8.4047e-05
78 *541:8 *1463:RESET_B 4.96717e-05
79 *541:8 *602:20 0.000136678
80 *557:28 *1463:RESET_B 0
81 *557:28 *1467:RESET_B 0.00018082
82 *557:32 *602:73 3.07752e-05
83 *558:53 *602:73 0.00114466
84 *560:92 *602:73 0.000788533
85 *569:63 *602:102 5.77508e-05
86 *569:63 *602:116 0.000100069
87 *574:41 *602:116 0.000243054
88 *575:49 *602:116 0.000196043
89 *577:43 *602:73 0.00329591
90 *599:18 *602:126 6.62982e-06
91 *600:6 *602:20 0.00014218
*RES
1 *1552:X *602:10 44.9393 
2 *602:10 *602:20 22.0014 
3 *602:20 *1463:RESET_B 36.3489 
4 *602:20 *1551:A 23 
5 *1463:RESET_B *1464:SET_B 36.2661 
6 *1464:SET_B *602:67 26.8425 
7 *602:67 *602:73 21.7983 
8 *602:73 *1227:B 40.0507 
9 *602:73 *602:94 26.2064 
10 *602:94 *602:102 7.95429 
11 *602:102 *602:116 46.2193 
12 *602:116 *602:126 41.2479 
13 *602:126 *1550:A 23 
14 *602:102 *1241:A 23 
15 *602:94 *1234:A 23 
16 *602:67 *1467:RESET_B 24.3216 
*END

*D_NET *603 0.00839365
*CONN
*I *1437:RESET_B I *D sky130_fd_sc_hd__dfrtp_2
*I *1433:RESET_B I *D sky130_fd_sc_hd__dfrtp_2
*I *1438:RESET_B I *D sky130_fd_sc_hd__dfrtp_2
*I *1428:RESET_B I *D sky130_fd_sc_hd__dfrtp_2
*I *1430:RESET_B I *D sky130_fd_sc_hd__dfrtp_2
*I *1435:RESET_B I *D sky130_fd_sc_hd__dfrtp_2
*I *1553:X O *D sky130_fd_sc_hd__clkdlybuf4s25_1
*CAP
1 *1437:RESET_B 0.000262248
2 *1433:RESET_B 0.000748434
3 *1438:RESET_B 0.000244754
4 *1428:RESET_B 0.000926188
5 *1430:RESET_B 0.00087825
6 *1435:RESET_B 0.000262919
7 *1553:X 0.000233441
8 *603:54 0.000977392
9 *603:8 0.000297846
10 uio_out[2] *1428:RESET_B 0
11 uio_out[5] *1433:RESET_B 2.91826e-05
12 uio_out[6] *1433:RESET_B 0
13 uio_out[6] *1437:RESET_B 0.00038558
14 *1174:A *1438:RESET_B 0.000144501
15 *1174:B *1433:RESET_B 0
16 *1195:A *1433:RESET_B 0.000131735
17 *1430:D *1428:RESET_B 9.59561e-05
18 *1435:CLK *1430:RESET_B 0.000114083
19 *32:8 *603:54 8.77417e-05
20 *33:8 *1428:RESET_B 0
21 *37:26 *1433:RESET_B 0
22 *78:10 *603:8 0.00020111
23 *105:8 *1428:RESET_B 0
24 *106:10 *1433:RESET_B 0
25 *173:47 *1428:RESET_B 0
26 *177:41 *1437:RESET_B 7.57281e-06
27 *178:8 *1437:RESET_B 0.000158247
28 *255:10 *1437:RESET_B 0
29 *256:10 *1438:RESET_B 0.000263901
30 *267:8 *1428:RESET_B 0
31 *269:10 *1428:RESET_B 0
32 *391:10 *1433:RESET_B 0.000268662
33 *391:10 *1437:RESET_B 0
34 *398:12 *1430:RESET_B 2.17486e-05
35 *419:26 *1430:RESET_B 7.03869e-05
36 *429:26 *1430:RESET_B 2.93845e-05
37 *429:26 *603:8 0
38 *457:8 *1430:RESET_B 3.47781e-05
39 *457:12 *1428:RESET_B 0.000179826
40 *457:12 *1430:RESET_B 0.000257937
41 *457:188 *1438:RESET_B 0.000206334
42 *457:188 *603:54 4.79641e-05
43 *457:206 *1428:RESET_B 0.000155154
44 *464:25 *1437:RESET_B 5.03619e-05
45 *465:6 *1430:RESET_B 7.28922e-05
46 *465:16 *1430:RESET_B 3.08719e-06
47 *465:26 *1437:RESET_B 9.18637e-05
48 *466:30 *1428:RESET_B 7.75329e-06
49 *467:10 *1428:RESET_B 0.000187734
50 *468:10 *1433:RESET_B 0.000216712
51 *470:31 *1438:RESET_B 1.21999e-05
52 *470:48 *1433:RESET_B 0
53 *575:65 *1437:RESET_B 1.34354e-05
54 *598:40 *1433:RESET_B 1.43557e-05
*RES
1 *1553:X *603:8 43.4271 
2 *603:8 *1435:RESET_B 16.0254 
3 *1435:RESET_B *1430:RESET_B 35.3132 
4 *1430:RESET_B *1428:RESET_B 43.6611 
5 *1428:RESET_B *603:54 4.83679 
6 *603:54 *1438:RESET_B 6.26607 
7 *603:54 *1433:RESET_B 39.6529 
8 *1433:RESET_B *1437:RESET_B 36.4525 
*END

*D_NET *604 0.00403316
*CONN
*I *1579:inc I *D incrementer
*I *1580:HI O *D sky130_fd_sc_hd__conb_1
*CAP
1 *1579:inc 0.000749906
2 *1580:HI 0.000143295
3 *604:8 0.000893201
4 *1579:inc *613:18 0
5 *1579:inc *617:42 0.000363052
6 *1579:inc *618:38 0.000603381
7 *1579:inc *622:22 0.000392981
8 *1579:inc *624:28 0.000126331
9 *1202:B2 *604:8 1.34914e-05
10 *126:24 *604:8 9.2964e-05
11 *134:14 *604:8 0.00026875
12 *257:30 *1579:inc 2.34898e-05
13 *270:14 *1579:inc 3.47781e-05
14 *270:14 *604:8 0.000100069
15 *319:24 *1579:inc 0
16 *490:14 *604:8 4.17548e-05
17 *490:26 *604:8 0.000185718
*RES
1 *1580:HI *604:8 42.9093 
2 *604:8 *1579:inc 29.5215 
*END

*D_NET *605 0.0118743
*CONN
*I *1416:B1 I *D sky130_fd_sc_hd__o21a_2
*I *1410:B I *D sky130_fd_sc_hd__and2_2
*I *1396:B I *D sky130_fd_sc_hd__and2_2
*I *1398:B I *D sky130_fd_sc_hd__and2_2
*I *1397:B I *D sky130_fd_sc_hd__and2_2
*I *1413:B1 I *D sky130_fd_sc_hd__o21a_2
*I *1406:B I *D sky130_fd_sc_hd__and2_2
*I *1409:B1 I *D sky130_fd_sc_hd__o21a_2
*I *1405:B I *D sky130_fd_sc_hd__and2_2
*I *1399:B I *D sky130_fd_sc_hd__and2_2
*I *1554:X O *D sky130_fd_sc_hd__clkdlybuf4s25_1
*CAP
1 *1416:B1 2.6669e-05
2 *1410:B 0.000286326
3 *1396:B 0.000287575
4 *1398:B 0.000114662
5 *1397:B 0
6 *1413:B1 0.000169192
7 *1406:B 0
8 *1409:B1 8.0739e-05
9 *1405:B 0
10 *1399:B 0.000123441
11 *1554:X 0.000425161
12 *605:83 0.000281987
13 *605:79 0.000944997
14 *605:77 0.000776423
15 *605:75 0.000301226
16 *605:57 5.47603e-05
17 *605:51 0.000345241
18 *605:34 0.000365324
19 *605:20 0.000303102
20 *605:16 0.000391931
21 *605:12 0.000323532
22 *605:10 0.000425161
23 *605:10 *606:138 1.94693e-05
24 *1355:D *1396:B 2.98648e-05
25 *1360:C *605:75 0.000139352
26 *1361:D *1399:B 2.32004e-05
27 *1397:A *1398:B 9.84851e-05
28 *1416:A2 *1416:B1 6.17437e-06
29 *1416:A2 *605:75 4.00259e-06
30 *1481:D *1396:B 9.41704e-05
31 *1494:CLK *1399:B 0.000221997
32 *1495:CLK *605:10 0.000103605
33 *1567:A *1398:B 0
34 *90:8 *605:83 3.62219e-05
35 *91:10 *605:79 0
36 *91:10 *605:83 0
37 *98:16 *605:10 7.43025e-06
38 *99:8 *605:10 2.96369e-05
39 *101:8 *1410:B 0.000101575
40 *101:16 *605:16 4.67488e-05
41 *101:16 *605:75 0.000136226
42 *103:8 *605:79 0.000322358
43 *416:10 *605:75 0.000181131
44 *441:12 *1409:B1 2.57604e-05
45 *442:20 *1409:B1 9.41704e-05
46 *444:18 *1410:B 0
47 *444:18 *605:79 0
48 *446:50 *1396:B 2.64616e-05
49 *446:50 *605:79 0.000788233
50 *446:50 *605:83 6.25829e-05
51 *508:136 *1410:B 9.21347e-06
52 *514:14 *1409:B1 6.17437e-06
53 *515:8 *1410:B 0.000166513
54 *515:26 *1413:B1 0.000314459
55 *515:26 *605:51 0.000140259
56 *516:30 *605:16 9.41704e-05
57 *516:30 *605:75 0.000168687
58 *517:22 *1416:B1 5.50106e-05
59 *517:22 *605:75 0.000112675
60 *523:10 *1396:B 2.64616e-05
61 *523:10 *605:83 2.36844e-05
62 *523:26 *1398:B 4.95081e-05
63 *523:57 *1398:B 0
64 *524:8 *605:83 0
65 *528:14 *605:20 0.000360039
66 *528:14 *605:34 0.00027731
67 *528:14 *605:51 0.000127263
68 *533:18 *1399:B 9.75779e-05
69 *533:18 *1410:B 1.34354e-05
70 *533:18 *605:79 1.4471e-05
71 *537:18 *1398:B 0.000270682
72 *543:8 *605:51 5.3304e-05
73 *543:16 *605:10 0.000108681
74 *543:16 *605:20 0.000357798
75 *543:16 *605:34 0.000286534
76 *543:16 *605:51 0.000114074
*RES
1 *1554:X *605:10 43.9864 
2 *605:10 *605:12 15 
3 *605:12 *605:16 16.0979 
4 *605:16 *605:20 20.075 
5 *605:20 *1399:B 26.0036 
6 *605:20 *1405:B 23 
7 *605:16 *605:34 4.01857 
8 *605:34 *1409:B1 39.595 
9 *605:34 *605:51 18.48 
10 *605:51 *605:57 30.8493 
11 *605:57 *1406:B 23 
12 *605:51 *1413:B1 26.9771 
13 *605:12 *605:75 7.31214 
14 *605:75 *605:77 15 
15 *605:77 *605:79 11.4136 
16 *605:79 *605:83 17.9621 
17 *605:83 *1397:B 23 
18 *605:83 *1398:B 26.9979 
19 *605:79 *1396:B 42.93 
20 *605:77 *1410:B 44.1314 
21 *605:75 *1416:B1 23.6214 
*END

*D_NET *606 0.0157328
*CONN
*I *1403:B I *D sky130_fd_sc_hd__and2_2
*I *1554:A I *D sky130_fd_sc_hd__clkdlybuf4s25_1
*I *1400:B I *D sky130_fd_sc_hd__and2_2
*I *1401:B I *D sky130_fd_sc_hd__and2_2
*I *1402:B I *D sky130_fd_sc_hd__and2_2
*I *1285:B I *D sky130_fd_sc_hd__and2_2
*I *1404:B I *D sky130_fd_sc_hd__and2_2
*I *1393:B I *D sky130_fd_sc_hd__and2_2
*I *1395:B I *D sky130_fd_sc_hd__and2_2
*I *1394:B I *D sky130_fd_sc_hd__and2_2
*I *1555:X O *D sky130_fd_sc_hd__clkdlybuf4s25_1
*CAP
1 *1403:B 0
2 *1554:A 0
3 *1400:B 8.04447e-05
4 *1401:B 0
5 *1402:B 9.84204e-06
6 *1285:B 0.00048955
7 *1404:B 0
8 *1393:B 2.44744e-05
9 *1395:B 6.43915e-05
10 *1394:B 0.000509414
11 *1555:X 0.000647565
12 *606:138 0.000727156
13 *606:121 0.000996449
14 *606:103 0.000310182
15 *606:95 0.000533265
16 *606:86 0.000147337
17 *606:64 0.000559951
18 *606:60 0.0010495
19 *606:58 0.000319347
20 *606:49 0.000389738
21 *606:36 0.000541976
22 *606:10 0.00082857
23 *1101:B *606:10 0
24 *1347:A *606:36 0
25 *1394:A *1394:B 1.94968e-05
26 *1418:CLK *1394:B 9.88574e-06
27 *1418:CLK *606:10 0
28 *1418:CLK *606:36 5.36306e-05
29 *1418:CLK *606:49 5.05615e-05
30 *1486:CLK *1393:B 9.84794e-05
31 *1486:CLK *606:58 9.84851e-05
32 *1487:CLK *1285:B 5.71786e-05
33 *1489:CLK *606:95 5.56279e-05
34 *1489:CLK *606:121 0.000131437
35 *11:15 *1285:B 0
36 *12:15 *1285:B 0
37 *87:10 *1394:B 0.00017761
38 *87:18 *1394:B 0.000106386
39 *95:6 *606:58 0.000527062
40 *95:6 *606:86 0.000124921
41 *95:6 *606:95 1.56542e-05
42 *97:12 *1285:B 0.000394757
43 *97:12 *606:64 0.000169065
44 *98:16 *606:121 0.00062287
45 *98:16 *606:138 0.000339989
46 *180:70 *606:10 0
47 *197:111 *606:64 7.45744e-05
48 *423:46 *606:58 0.000234007
49 *423:46 *606:86 7.56198e-05
50 *423:46 *606:95 5.11621e-05
51 *423:46 *606:121 0.000329319
52 *442:20 *606:138 0.0001022
53 *446:22 *606:10 2.76611e-06
54 *447:10 *1394:B 0.000143655
55 *447:10 *606:10 0
56 *447:14 *606:36 2.64616e-05
57 *447:64 *606:36 9.91895e-05
58 *447:68 *606:36 3.53115e-05
59 *447:79 *606:103 8.66582e-05
60 *447:81 *606:103 1.6279e-05
61 *447:188 *606:138 1.01436e-05
62 *508:18 *1393:B 5.41288e-05
63 *508:18 *606:49 0
64 *508:18 *606:58 0.000112271
65 *508:109 *1285:B 0
66 *508:123 *606:138 0
67 *509:10 *606:49 0
68 *510:18 *1400:B 0.000278537
69 *510:18 *606:103 0.000143874
70 *512:30 *606:64 0
71 *513:29 *606:138 3.83778e-05
72 *514:14 *606:138 5.09072e-05
73 *516:30 *606:138 8.26569e-05
74 *516:40 *1395:B 0.00014196
75 *517:52 *1394:B 0.000356724
76 *521:12 *606:10 0.000227208
77 *528:14 *606:138 6.99782e-05
78 *529:8 *606:103 3.22051e-05
79 *537:28 *606:36 0.000141879
80 *542:8 *1400:B 5.68958e-05
81 *547:42 *606:138 1.53024e-05
82 *565:8 *606:64 0.000628079
83 *576:14 *1285:B 6.81908e-05
84 *576:14 *606:64 0.000644513
85 *605:10 *606:138 1.94693e-05
*RES
1 *1555:X *606:10 43.1371 
2 *606:10 *1394:B 48.5643 
3 *1555:X *606:36 43.7379 
4 *606:36 *1395:B 39.5743 
5 *606:36 *606:49 17.61 
6 *606:49 *1393:B 24.0979 
7 *606:49 *606:58 8.24429 
8 *606:58 *606:60 15 
9 *606:60 *606:64 28.8786 
10 *606:64 *1404:B 23 
11 *606:60 *1285:B 47.57 
12 *606:58 *606:86 2.69286 
13 *606:86 *1402:B 23.4971 
14 *606:86 *606:95 1.09786 
15 *606:95 *606:103 34.5364 
16 *606:103 *1401:B 23 
17 *606:103 *1400:B 26.0036 
18 *606:95 *606:121 10.3157 
19 *606:121 *1554:A 23 
20 *606:121 *606:138 44.6243 
21 *606:138 *1403:B 23 
*END

*D_NET *607 0.0241818
*CONN
*I *1509:A I *D sky130_fd_sc_hd__clkdlybuf4s25_1
*I *1578:q[0] O *D tt_rom
*CAP
1 *1509:A 0.000246057
2 *1578:q[0] 0.00331385
3 *607:49 0.00179359
4 *607:41 0.00470119
5 *607:29 0.00333527
6 *607:21 0.00349546
7 *607:21 *608:23 0.000427238
8 *607:21 *608:27 0.000253668
9 *607:21 *609:21 0.000532159
10 *607:21 *610:11 0.00021972
11 *607:29 *608:43 1.3153e-05
12 *607:29 *609:21 0.00118958
13 *607:29 *610:11 0.00118296
14 *607:41 *608:43 0
15 *607:49 *608:59 0.00113715
16 *1130:C1 *607:49 5.72498e-05
17 *1298:B *1509:A 0.000308039
18 *1466:CLK *607:49 6.33258e-05
19 *156:18 *607:49 7.07398e-05
20 *160:60 *607:49 0.000373799
21 *162:31 *607:49 0
22 *220:10 *607:49 1.2597e-05
23 *369:10 *607:49 0
24 *448:17 *607:49 0.000352993
25 *517:70 *607:49 0.000474911
26 *577:43 *607:49 0.00061782
27 *593:23 *607:49 9.2467e-06
*RES
1 *1578:q[0] *607:21 47.5375 
2 *607:21 *607:29 36.3296 
3 *607:29 *607:41 43.5347 
4 *607:41 *607:49 39.8757 
5 *607:49 *1509:A 42.4329 
*END

*D_NET *608 0.0279208
*CONN
*I *1506:A I *D sky130_fd_sc_hd__clkdlybuf4s25_1
*I *1578:q[1] O *D tt_rom
*CAP
1 *1506:A 4.11105e-05
2 *1578:q[1] 0.00164278
3 *608:59 0.00276115
4 *608:43 0.00660991
5 *608:27 0.00416529
6 *608:23 0.00191819
7 *608:23 *609:17 0
8 *608:27 *609:21 0.00223234
9 *608:27 *610:11 0.00222895
10 *608:59 *609:33 0.000249368
11 *608:59 *611:35 0.000171776
12 *608:59 *613:54 0.00045679
13 *608:59 *625:22 0.00105474
14 *1298:C *608:59 2.05503e-05
15 *189:30 *608:59 2.15106e-05
16 *352:14 *608:59 9.21981e-05
17 *354:27 *1506:A 9.41704e-05
18 *456:48 *1506:A 9.41704e-05
19 *508:87 *608:59 0.00174644
20 *548:25 *608:59 1.45025e-05
21 *577:43 *608:59 0.000473677
22 *607:21 *608:23 0.000427238
23 *607:21 *608:27 0.000253668
24 *607:29 *608:43 1.3153e-05
25 *607:41 *608:43 0
26 *607:49 *608:59 0.00113715
*RES
1 *1578:q[1] *608:23 40.1853 
2 *608:23 *608:27 39.4429 
3 *608:27 *608:43 47.3468 
4 *608:43 *608:59 43.1346 
5 *608:59 *1506:A 39.0979 
*END

*D_NET *609 0.0235094
*CONN
*I *1503:A I *D sky130_fd_sc_hd__clkdlybuf4s25_1
*I *1578:q[2] O *D tt_rom
*CAP
1 *1503:A 6.61764e-05
2 *1578:q[2] 0.000823515
3 *609:41 0.00119228
4 *609:33 0.00482104
5 *609:21 0.00538927
6 *609:19 0.00169433
7 *609:17 0.000823515
8 *609:17 *610:9 9.03784e-05
9 *609:17 *610:11 1.59094e-05
10 *609:21 *610:11 0.000951972
11 *609:41 *612:54 0.000614485
12 *609:41 *616:53 0.00063331
13 *1122:A *609:41 7.03766e-05
14 *1290:S *609:41 0.000181934
15 *1352:B *609:41 1.05658e-05
16 *121:45 *609:41 8.04817e-05
17 *197:26 *609:41 4.60157e-05
18 *217:10 *609:41 8.72992e-05
19 *218:20 *609:41 0
20 *221:8 *609:41 0
21 *222:10 *609:41 0.00011933
22 *222:25 *609:41 0.000158155
23 *223:8 *609:41 1.91026e-05
24 *229:10 *609:41 0.000154056
25 *232:10 *609:41 2.0225e-05
26 *232:23 *609:41 3.71696e-05
27 *348:22 *609:41 1.09111e-05
28 *352:14 *609:41 9.9025e-06
29 *354:27 *1503:A 0.000267167
30 *408:10 *609:41 0.000169873
31 *456:48 *1503:A 0.000267167
32 *458:16 *609:41 0.000234019
33 *551:12 *609:41 0.000172387
34 *560:92 *609:41 4.60157e-05
35 *588:54 *609:41 2.76272e-05
36 *607:21 *609:21 0.000532159
37 *607:29 *609:21 0.00118958
38 *608:23 *609:17 0
39 *608:27 *609:21 0.00223234
40 *608:59 *609:33 0.000249368
*RES
1 *1578:q[2] *609:17 47.6227 
2 *609:17 *609:19 15 
3 *609:19 *609:21 55.8871 
4 *609:21 *609:33 45.1848 
5 *609:33 *609:41 35.4956 
6 *609:41 *1503:A 41.0036 
*END

*D_NET *610 0.0347949
*CONN
*I *1373:B I *D sky130_fd_sc_hd__nand2b_2
*I *1500:A I *D sky130_fd_sc_hd__clkdlybuf4s25_1
*I *1578:q[3] O *D tt_rom
*CAP
1 *1373:B 0
2 *1500:A 0
3 *1578:q[3] 0.000256894
4 *610:70 0.00145333
5 *610:51 0.00222898
6 *610:43 0.00216665
7 *610:21 0.00773637
8 *610:11 0.00890753
9 *610:9 0.00281905
10 *610:21 *615:38 0
11 *610:43 *614:74 0.000278843
12 *610:43 *617:100 2.81221e-05
13 *610:51 *617:112 9.31476e-05
14 *1123:B *610:51 2.9354e-05
15 *1139:B1 *610:70 0.000358855
16 *1284:A1 *610:70 0.000515797
17 *1284:B1 *610:70 0.000387502
18 *1377:C *610:70 5.58873e-06
19 *1389:A1 *610:70 4.04634e-05
20 *1501:A *610:70 1.94377e-05
21 *1504:A *610:70 3.34818e-06
22 *197:26 *610:51 7.43748e-05
23 *197:26 *610:70 7.66307e-05
24 *220:10 *610:70 7.05055e-05
25 *223:8 *610:51 0
26 *234:8 *610:70 0.000202719
27 *235:10 *610:70 0.00017426
28 *341:12 *610:70 5.79413e-06
29 *348:22 *610:51 0
30 *353:22 *610:70 0.000185755
31 *359:10 *610:70 0
32 *366:10 *610:43 0.000160631
33 *367:8 *610:43 4.04592e-05
34 *369:18 *610:43 0.000203683
35 *370:10 *610:43 8.66656e-05
36 *430:10 *610:70 3.30257e-05
37 *446:22 *610:51 0.000398016
38 *478:28 *610:51 6.27046e-05
39 *478:28 *610:70 0
40 *481:52 *610:43 2.79505e-05
41 *508:87 *610:43 0
42 *511:22 *610:70 2.11066e-05
43 *517:70 *610:43 0.000161609
44 *545:10 *610:51 7.43748e-05
45 *545:10 *610:70 8.73233e-05
46 *546:50 *610:70 0
47 *548:36 *610:70 0
48 *551:61 *610:70 0.00044221
49 *557:42 *610:51 8.11914e-06
50 *577:43 *610:43 0.000133285
51 *589:35 *610:43 4.45778e-05
52 *607:21 *610:11 0.00021972
53 *607:29 *610:11 0.00118296
54 *608:27 *610:11 0.00222895
55 *609:17 *610:9 9.03784e-05
56 *609:17 *610:11 1.59094e-05
57 *609:21 *610:11 0.000951972
*RES
1 *1578:q[3] *610:9 18.4748 
2 *610:9 *610:11 73.0386 
3 *610:11 *610:21 43.6609 
4 *610:21 *610:43 40.0691 
5 *610:43 *610:51 27.7289 
6 *610:51 *1500:A 23 
7 *610:51 *610:70 46.5479 
8 *610:70 *1373:B 38 
*END

*D_NET *611 0.0104123
*CONN
*I *1286:B1 I *D sky130_fd_sc_hd__o21a_2
*I *1418:GATE I *D sky130_fd_sc_hd__dlclkp_2
*I *1287:B1 I *D sky130_fd_sc_hd__o21ai_2
*I *1074:X O *D sky130_fd_sc_hd__o211a_2
*CAP
1 *1286:B1 5.46257e-05
2 *1418:GATE 0
3 *1287:B1 7.47006e-05
4 *1074:X 0.000244318
5 *611:35 0.00217899
6 *611:25 0.00232736
7 *611:14 0.000389545
8 *611:12 0.000465422
9 *645:CLK *1286:B1 5.3304e-05
10 *1006:A *611:12 1.74874e-06
11 *1286:A2 *611:25 0.000191843
12 *1353:B *611:35 0
13 *87:10 *611:35 9.86551e-06
14 *121:95 *611:12 0.000241316
15 *151:72 *611:35 0.000146334
16 *180:70 *611:35 6.10551e-06
17 *189:30 *611:35 0
18 *198:28 *1287:B1 0.000184402
19 *199:14 *1286:B1 1.98028e-05
20 *199:14 *611:25 5.79413e-06
21 *280:134 *611:14 1.12487e-05
22 *280:134 *611:25 1.22906e-05
23 *349:12 *611:12 1.41077e-05
24 *442:20 *611:35 9.70421e-05
25 *486:20 *611:35 0.00166642
26 *508:48 *1286:B1 5.38923e-05
27 *508:48 *611:25 5.09165e-05
28 *516:58 *611:35 0.00036724
29 *556:27 *1287:B1 0.000180218
30 *556:29 *1287:B1 5.3304e-05
31 *556:117 *611:12 2.45215e-05
32 *556:117 *611:14 0.000438777
33 *558:68 *611:12 3.22879e-05
34 *596:85 *611:12 0.000348172
35 *596:85 *611:14 0.0002232
36 *596:85 *611:25 7.14474e-05
37 *608:59 *611:35 0.000171776
*RES
1 *1074:X *611:12 44.1418 
2 *611:12 *611:14 6.3075 
3 *611:14 *1287:B1 40.5271 
4 *611:14 *611:25 3.13821 
5 *611:25 *611:35 37.3877 
6 *611:35 *1418:GATE 23 
7 *611:25 *1286:B1 39.2946 
*END

*D_NET *612 0.0500055
*CONN
*I *1578:addr[0] I *D tt_rom
*I *1547:A I *D sky130_fd_sc_hd__clkdlybuf4s25_1
*I *639:DIODE I *D sky130_fd_sc_hd__diode_2
*I *1579:q[0] O *D incrementer
*CAP
1 *1578:addr[0] 0.000308976
2 *1547:A 0
3 *639:DIODE 1.50079e-05
4 *1579:q[0] 0.0025879
5 *612:54 0.00761554
6 *612:24 1.50079e-05
7 *612:22 0.00989447
8 *1578:addr[0] *1578:addr[1] 2.99605e-05
9 *1578:addr[0] *625:46 1.36897e-05
10 *612:22 *616:32 9.51708e-06
11 *612:22 *617:42 4.90007e-05
12 *612:22 *618:38 0.00018755
13 *612:22 *621:46 0.000269425
14 *612:22 *624:28 5.42359e-06
15 *612:22 *625:16 0.00101662
16 *612:22 *626:16 0.000889294
17 *612:22 *627:22 0.00144363
18 *612:22 *629:22 0.000775811
19 *612:22 *633:24 7.58805e-06
20 *612:54 *1047:B1 0.000101269
21 *612:54 *1578:addr[1] 0.00955527
22 *612:54 *616:53 0.00134481
23 *612:54 *617:73 5.25433e-05
24 *612:54 *620:30 1.07055e-05
25 *612:54 *623:60 0.000587861
26 *612:54 *624:75 0.000412356
27 *612:54 *625:46 0.00108634
28 *612:54 *630:44 0.00169661
29 *612:54 *630:62 0.00010751
30 *1203:A2 *639:DIODE 5.50049e-05
31 *1578:addr[5] *1578:addr[0] 1.48035e-05
32 *126:12 *612:22 0.000110175
33 *200:73 *612:54 0.00149582
34 *211:24 *612:54 0.00134746
35 *258:66 *612:22 0.000184318
36 *258:66 *612:54 2.05503e-05
37 *271:10 *612:22 3.61334e-05
38 *271:10 *612:54 6.65598e-06
39 *279:48 *612:54 0.000154576
40 *284:82 *612:54 0.00125996
41 *321:18 *612:22 2.15285e-05
42 *325:6 *639:DIODE 5.50049e-05
43 *471:52 *612:54 0.00187788
44 *472:50 *612:54 0.000955703
45 *477:26 *612:54 0
46 *479:34 *612:54 0.000115989
47 *504:35 *612:54 0.000885522
48 *523:38 *612:54 0.000652476
49 *584:70 *612:54 1.41608e-05
50 *596:45 *612:54 3.75966e-05
51 *609:41 *612:54 0.000614485
*RES
1 *1579:q[0] *612:22 43.369 
2 *612:22 *612:24 15 
3 *612:24 *639:DIODE 23.6214 
4 *612:24 *1547:A 23 
5 *612:22 *612:54 47.4627 
6 *612:54 *1578:addr[0] 49.2337 
*END

*D_NET *613 0.0415204
*CONN
*I *1021:B1 I *D sky130_fd_sc_hd__o21ai_2
*I *1020:A I *D sky130_fd_sc_hd__or3_2
*I *1084:A1 I *D sky130_fd_sc_hd__a21oi_2
*I *1083:A I *D sky130_fd_sc_hd__and3_2
*I *1579:q[10] O *D incrementer
*CAP
1 *1021:B1 4.03524e-05
2 *1020:A 0
3 *1084:A1 0.000370569
4 *1083:A 0
5 *1579:q[10] 0.000861498
6 *613:72 0.000311385
7 *613:66 0.000664504
8 *613:54 0.00376787
9 *613:34 0.000476375
10 *613:30 0.00718759
11 *613:28 0.00362668
12 *613:26 0.00072053
13 *613:18 0.00157324
14 *613:12 0.00211347
15 *613:8 0.00212226
16 *1021:B1 *1039:C 0.000139352
17 *1084:A1 *1084:A2 2.26497e-05
18 *1084:A1 *614:44 6.98822e-05
19 *1084:A1 *614:55 7.46559e-05
20 *613:8 *614:28 3.61403e-06
21 *613:8 *621:26 6.96501e-05
22 *613:12 *618:22 0.000792206
23 *613:12 *623:16 0.000657631
24 *613:12 *625:16 0.000104405
25 *613:18 *617:42 4.58941e-05
26 *613:18 *618:38 8.13995e-05
27 *613:18 *624:28 0.000197088
28 *613:18 *629:22 0
29 *613:18 *633:24 0.000368743
30 *613:26 *1536:A 8.60002e-06
31 *613:26 *625:16 0.000113639
32 *613:30 *614:28 0.000233418
33 *613:30 *625:22 0.00550524
34 *613:34 *614:44 3.55458e-05
35 *613:34 *615:48 4.15283e-06
36 *613:54 *625:22 0.0055077
37 *613:66 *1039:C 6.0392e-05
38 *1021:A1 *613:66 0.000108101
39 *1021:A2 *613:72 0.000425108
40 *1039:A *1021:B1 9.84851e-05
41 *1039:B *613:72 0
42 *1270:A1 *613:26 5.43589e-05
43 *1307:A1 *1084:A1 6.06349e-05
44 *1540:A *1084:A1 0
45 *1579:inc *613:18 0
46 *135:8 *613:72 4.59027e-05
47 *170:27 *1084:A1 2.21277e-05
48 *183:14 *1084:A1 2.12347e-06
49 *261:28 *613:30 0.000270755
50 *319:24 *613:26 0.000409274
51 *324:22 *613:18 5.85486e-05
52 *328:6 *613:26 0.000130527
53 *328:14 *613:26 1.66113e-05
54 *329:10 *613:26 3.39102e-05
55 *452:8 *613:66 8.04879e-05
56 *453:28 *613:66 0
57 *454:10 *613:66 1.22822e-05
58 *475:10 *613:72 1.14452e-05
59 *559:124 *613:72 5.43589e-05
60 *577:43 *613:54 0.000100794
61 *581:46 *1084:A1 2.93845e-05
62 *584:10 *613:18 1.67942e-05
63 *584:10 *613:26 1.36806e-05
64 *584:36 *613:26 0.000540376
65 *589:10 *1084:A1 0.000135904
66 *591:29 *613:18 0.00017733
67 *594:27 *1084:A1 0
68 *594:40 *1084:A1 0
69 *595:55 *613:30 0.000222132
70 *608:59 *613:54 0.00045679
*RES
1 *1579:q[10] *613:8 17.8779 
2 *613:8 *613:12 48.0704 
3 *613:12 *613:18 35.3 
4 *613:18 *613:26 44.6657 
5 *613:26 *613:28 15 
6 *613:28 *613:30 62.5571 
7 *613:30 *613:34 16.5536 
8 *613:34 *1083:A 38 
9 *613:34 *1084:A1 44.7529 
10 *613:30 *613:54 60.175 
11 *613:54 *613:66 35.8 
12 *613:66 *613:72 36.1314 
13 *613:72 *1020:A 23 
14 *613:66 *1021:B1 24.5743 
*END

*D_NET *614 0.0340985
*CONN
*I *1038:B1 I *D sky130_fd_sc_hd__o21ai_2
*I *1039:C I *D sky130_fd_sc_hd__or3_2
*I *1084:A2 I *D sky130_fd_sc_hd__a21oi_2
*I *1083:B I *D sky130_fd_sc_hd__and3_2
*I *1579:q[11] O *D incrementer
*CAP
1 *1038:B1 0
2 *1039:C 0.000316774
3 *1084:A2 6.72126e-05
4 *1083:B 0
5 *1579:q[11] 0.00404547
6 *614:74 0.00348017
7 *614:55 0.00341937
8 *614:44 0.000288009
9 *614:36 0.00193247
10 *614:28 0.00587868
11 *1084:A2 *616:53 0.000161701
12 *614:28 *615:22 3.98545e-05
13 *614:28 *620:30 0.00241121
14 *614:28 *621:26 0
15 *614:28 *625:22 0.000675621
16 *614:28 *631:67 0.000285434
17 *614:44 *615:48 9.28078e-06
18 *614:44 *615:63 0
19 *614:74 *1047:B1 7.57151e-06
20 *614:74 *616:53 0.00172996
21 *614:74 *617:100 0.000162261
22 *614:74 *617:112 0.00151885
23 *1018:A *614:36 3.22879e-05
24 *1021:A1 *1039:C 0
25 *1021:A2 *1039:C 0.000192664
26 *1021:A2 *614:74 8.76694e-05
27 *1021:B1 *1039:C 0.000139352
28 *1039:A *1039:C 2.4754e-05
29 *1084:A1 *1084:A2 2.26497e-05
30 *1084:A1 *614:44 6.98822e-05
31 *1084:A1 *614:55 7.46559e-05
32 *1087:B2 *614:36 0
33 *1088:A2 *614:36 2.73039e-05
34 *1307:A1 *1084:A2 2.47015e-05
35 *1578:addr[11] *614:74 0
36 *133:6 *614:36 3.58084e-06
37 *136:8 *1039:C 0.00010018
38 *158:27 *614:74 0.000391224
39 *180:32 *614:74 0.000117118
40 *182:10 *614:44 1.14452e-05
41 *182:10 *614:55 0.000162774
42 *183:14 *614:55 0.000126096
43 *193:24 *614:28 0.000376748
44 *350:22 *1084:A2 0.000161827
45 *350:22 *614:74 0.00029711
46 *380:10 *614:36 1.73399e-05
47 *454:10 *1039:C 0.000130134
48 *472:66 *614:28 0.000598806
49 *474:70 *614:36 0
50 *479:34 *614:74 0.00125079
51 *481:38 *614:74 6.98611e-05
52 *481:52 *614:74 0.000130547
53 *523:38 *614:74 0.000350602
54 *523:48 *614:74 0.001378
55 *559:37 *1039:C 0
56 *559:37 *614:74 0
57 *577:43 *614:74 0
58 *583:22 *614:36 0.000401899
59 *589:10 *614:36 8.19644e-06
60 *589:10 *614:44 1.01436e-05
61 *589:10 *614:55 0.000125761
62 *594:27 *614:36 4.19437e-05
63 *595:55 *614:28 7.81946e-05
64 *595:55 *614:36 2.05503e-05
65 *610:43 *614:74 0.000278843
66 *613:8 *614:28 3.61403e-06
67 *613:30 *614:28 0.000233418
68 *613:34 *614:44 3.55458e-05
69 *613:66 *1039:C 6.0392e-05
*RES
1 *1579:q[11] *614:28 49.6325 
2 *614:28 *614:36 40.1368 
3 *614:36 *614:44 17.6721 
4 *614:44 *1083:B 38 
5 *614:44 *614:55 12.5468 
6 *614:55 *1084:A2 46.6347 
7 *614:55 *614:74 21.5667 
8 *614:74 *1039:C 45.3743 
9 *614:74 *1038:B1 38 
*END

*D_NET *615 0.0299484
*CONN
*I *1043:B1 I *D sky130_fd_sc_hd__o21ai_2
*I *1044:C I *D sky130_fd_sc_hd__or3_2
*I *1084:B1 I *D sky130_fd_sc_hd__a21oi_2
*I *1083:C I *D sky130_fd_sc_hd__and3_2
*I *1579:q[12] O *D incrementer
*CAP
1 *1043:B1 0
2 *1044:C 2.41551e-05
3 *1084:B1 0
4 *1083:C 0
5 *1579:q[12] 0.000945151
6 *615:103 0.000405806
7 *615:86 0.000548237
8 *615:84 0.00300503
9 *615:63 0.000425214
10 *615:55 0.00350797
11 *615:48 0.000560884
12 *615:38 0.0038096
13 *615:26 0.00641908
14 *615:24 0.00297437
15 *615:22 0.000945151
16 *615:22 *616:26 0.000349309
17 *615:22 *620:30 0
18 *615:22 *621:26 0.000581182
19 *615:22 *622:22 0.00180068
20 *615:63 *634:10 4.83846e-05
21 *1048:A *615:84 0.000269781
22 *1059:A *615:84 4.66047e-05
23 *1063:A *615:84 2.46906e-05
24 *1065:A *615:84 0.000231852
25 *1130:B1 *615:84 1.76557e-05
26 *1130:B2 *615:84 5.80656e-05
27 *1130:C1 *615:84 7.88828e-05
28 *1160:B *615:86 5.50049e-05
29 *1160:B *615:103 0
30 *1307:A1 *615:63 4.67488e-05
31 *1315:A3 *615:84 0.000138007
32 *149:20 *615:103 0.000144938
33 *149:37 *615:103 4.04222e-05
34 *153:10 *615:84 5.67058e-05
35 *155:10 *615:84 0.000268873
36 *156:37 *615:103 0.000165043
37 *157:8 *615:103 1.21819e-05
38 *160:78 *615:84 0.000361027
39 *168:10 *615:84 3.22879e-05
40 *182:10 *615:55 6.71408e-06
41 *182:10 *615:63 0
42 *200:54 *615:63 5.64582e-05
43 *200:73 *615:63 3.39102e-05
44 *371:8 *615:84 5.43352e-05
45 *371:18 *615:63 0
46 *405:8 *615:84 5.50049e-05
47 *446:12 *615:84 6.56122e-05
48 *454:10 *615:84 0.000111226
49 *454:10 *615:86 0.000123516
50 *454:10 *615:103 4.18889e-05
51 *478:68 *615:103 2.04854e-05
52 *479:54 *615:84 0.000167941
53 *560:23 *615:103 0.000421344
54 *581:67 *615:63 0.00029234
55 *590:33 *615:48 4.53995e-05
56 *610:21 *615:38 0
57 *613:34 *615:48 4.15283e-06
58 *614:28 *615:22 3.98545e-05
59 *614:44 *615:48 9.28078e-06
60 *614:44 *615:63 0
*RES
1 *1579:q[12] *615:22 38.7731 
2 *615:22 *615:24 15 
3 *615:24 *615:26 62.5571 
4 *615:26 *615:38 44.7779 
5 *615:38 *615:48 31.9352 
6 *615:48 *1083:C 23 
7 *615:48 *615:55 2.52714 
8 *615:55 *615:63 37.9336 
9 *615:63 *1084:B1 23 
10 *615:55 *615:84 49.3621 
11 *615:84 *615:86 3.00357 
12 *615:86 *1044:C 23.4971 
13 *615:86 *615:103 38.7 
14 *615:103 *1043:B1 23 
*END

*D_NET *616 0.0392622
*CONN
*I *1047:B1 I *D sky130_fd_sc_hd__o21ai_2
*I *1049:C I *D sky130_fd_sc_hd__or3_2
*I *1068:C_N I *D sky130_fd_sc_hd__or4bb_2
*I *1579:q[13] O *D incrementer
*CAP
1 *1047:B1 0.000143274
2 *1049:C 0.000123511
3 *1068:C_N 0
4 *1579:q[13] 0.0017863
5 *616:53 0.0024998
6 *616:32 0.00533867
7 *616:26 0.00489196
8 *616:26 *617:22 0.000282399
9 *616:26 *621:26 0.00169314
10 *616:26 *621:46 0.00136229
11 *616:26 *622:22 0.0018261
12 *616:26 *623:28 5.54519e-05
13 *616:26 *624:28 0.000375945
14 *616:26 *628:22 0.0001312
15 *616:26 *629:16 0.000130986
16 *616:26 *630:24 5.84708e-05
17 *616:26 *631:24 0.000356436
18 *616:26 *631:32 0.000163584
19 *616:32 *617:42 0.000291218
20 *616:32 *617:61 0.00297275
21 *616:32 *620:30 0.0001044
22 *616:53 *617:73 0.000176529
23 *616:53 *617:112 0.00151536
24 *1049:B *1049:C 7.1459e-05
25 *1050:B *1047:B1 5.85486e-05
26 *1084:A2 *616:53 0.000161701
27 *154:8 *1047:B1 3.46356e-05
28 *191:30 *616:32 0.00139476
29 *200:73 *616:53 0.000345796
30 *350:22 *616:32 0.000400813
31 *350:22 *616:53 0.000200895
32 *381:18 *616:53 0.000101944
33 *479:34 *1047:B1 0.000161701
34 *483:20 *1047:B1 0
35 *483:20 *1049:C 0.000145714
36 *559:12 *1047:B1 6.85548e-05
37 *559:12 *1049:C 1.86493e-05
38 *583:33 *616:53 7.22049e-05
39 *591:29 *616:32 0.00556933
40 *609:41 *616:53 0.00063331
41 *612:22 *616:32 9.51708e-06
42 *612:54 *1047:B1 0.000101269
43 *612:54 *616:53 0.00134481
44 *614:74 *1047:B1 7.57151e-06
45 *614:74 *616:53 0.00172996
46 *615:22 *616:26 0.000349309
*RES
1 *1579:q[13] *616:26 43.2317 
2 *616:26 *616:32 28.4637 
3 *616:32 *1068:C_N 38 
4 *616:32 *616:53 19.8481 
5 *616:53 *1049:C 48.7032 
6 *616:53 *1047:B1 47.777 
*END

*D_NET *617 0.0453988
*CONN
*I *1054:B1 I *D sky130_fd_sc_hd__o21a_2
*I *1055:B I *D sky130_fd_sc_hd__nor2_2
*I *1068:D_N I *D sky130_fd_sc_hd__or4bb_2
*I *1582:D I *D sky130_fd_sc_hd__nand4_1
*I *1579:q[14] O *D incrementer
*CAP
1 *1054:B1 4.82265e-05
2 *1055:B 0
3 *1068:D_N 1.80505e-05
4 *1582:D 0
5 *1579:q[14] 0.00379029
6 *617:122 0.000122137
7 *617:116 0.000208487
8 *617:112 0.000787351
9 *617:100 0.00243852
10 *617:73 0.00273404
11 *617:61 0.00256805
12 *617:42 0.000981613
13 *617:24 0.00252297
14 *617:22 0.00379029
15 *1068:D_N *1310:A1 5.50049e-05
16 *617:22 *618:22 0.000104413
17 *617:22 *619:18 0.00218658
18 *617:22 *621:26 2.45223e-05
19 *617:22 *621:46 0.0019212
20 *617:22 *626:16 0.000744414
21 *617:22 *627:22 0.000144934
22 *617:22 *628:22 1.398e-05
23 *617:22 *630:24 0.000194485
24 *617:42 *1581:B 7.55121e-05
25 *617:42 *618:38 0.000111972
26 *617:42 *621:46 4.55238e-05
27 *617:61 *620:30 0.000652169
28 *617:61 *621:46 0.00020763
29 *617:61 *631:54 9.09987e-05
30 *1056:B1 *1054:B1 4.34745e-05
31 *1056:B1 *617:116 5.67058e-05
32 *1096:B1 *617:61 0.000225576
33 *1127:A *617:100 0.000355822
34 *1149:B *1054:B1 0.000137651
35 *1149:B *617:116 5.50049e-05
36 *1149:B *617:122 0.000153991
37 *1280:B *617:61 0.000114266
38 *1420:CLK *617:61 5.11944e-05
39 *1543:A *617:100 1.24376e-05
40 *1579:inc *617:42 0.000363052
41 *1582:A *617:42 0.000222671
42 *123:52 *617:73 6.85548e-05
43 *138:22 *617:42 0.000164334
44 *159:10 *617:112 3.39192e-05
45 *159:10 *617:122 3.93904e-06
46 *160:12 *617:112 3.00764e-05
47 *160:12 *617:116 2.18506e-05
48 *164:16 *617:100 7.1459e-05
49 *180:54 *617:112 0.000124919
50 *200:73 *617:73 0.000884596
51 *257:30 *617:42 0.000197988
52 *261:28 *617:22 0.000192372
53 *350:22 *617:73 6.08846e-05
54 *350:22 *617:100 0.000400848
55 *369:18 *617:100 4.96041e-05
56 *405:20 *617:122 5.96346e-06
57 *449:22 *617:61 4.49877e-05
58 *456:212 *617:61 5.13475e-05
59 *471:52 *617:73 0.00145944
60 *480:57 *1054:B1 5.3304e-05
61 *480:57 *617:122 6.59009e-05
62 *558:32 *617:100 8.06804e-06
63 *558:138 *617:112 0
64 *561:35 *617:61 0.000240248
65 *577:43 *617:100 2.27747e-06
66 *583:33 *617:73 0.000120444
67 *584:46 *617:61 6.86581e-05
68 *584:70 *617:73 0.0021493
69 *585:28 *617:73 2.05503e-05
70 *589:35 *617:100 9.1069e-05
71 *590:8 *1068:D_N 2.93747e-05
72 *590:33 *617:100 0.000961089
73 *591:29 *617:42 0.000125819
74 *594:27 *617:73 1.74874e-06
75 *594:40 *617:73 5.90401e-05
76 *594:52 *617:100 9.69175e-05
77 *595:12 *617:42 0.000183644
78 *596:12 *617:61 0.000444948
79 *596:45 *617:61 0.000710235
80 *596:55 *617:61 0.00052409
81 *596:55 *617:73 1.17256e-05
82 *610:43 *617:100 2.81221e-05
83 *610:51 *617:112 9.31476e-05
84 *612:22 *617:42 4.90007e-05
85 *612:54 *617:73 5.25433e-05
86 *613:18 *617:42 4.58941e-05
87 *614:74 *617:100 0.000162261
88 *614:74 *617:112 0.00151885
89 *616:26 *617:22 0.000282399
90 *616:32 *617:42 0.000291218
91 *616:32 *617:61 0.00297275
92 *616:53 *617:73 0.000176529
93 *616:53 *617:112 0.00151536
*RES
1 *1579:q[14] *617:22 46.3752 
2 *617:22 *617:24 8 
3 *617:24 *617:42 39.5538 
4 *617:42 *1582:D 23 
5 *617:24 *617:61 39.8586 
6 *617:61 *617:73 40.5607 
7 *617:73 *1068:D_N 38.6214 
8 *617:73 *617:100 42.8359 
9 *617:100 *617:112 38.0532 
10 *617:112 *617:116 16.0979 
11 *617:116 *617:122 32.61 
12 *617:122 *1055:B 23 
13 *617:116 *1054:B1 24.5743 
*END

*D_NET *618 0.01503
*CONN
*I *1546:A I *D sky130_fd_sc_hd__clkdlybuf4s25_1
*I *1579:q[15] O *D incrementer
*CAP
1 *1546:A 0
2 *1579:q[15] 0.00195106
3 *618:46 0.000456091
4 *618:38 0.00162931
5 *618:22 0.00312428
6 *618:22 *619:18 0.00232152
7 *618:22 *623:16 6.43972e-05
8 *618:22 *625:16 0.000128784
9 *618:22 *627:22 0.000410021
10 *618:38 *622:22 0.000679652
11 *618:38 *623:16 0.000995425
12 *618:38 *624:28 0.000262318
13 *618:38 *631:24 0.000680398
14 *618:46 *622:22 0
15 *1579:inc *618:38 0.000603381
16 *595:12 *618:46 0.000445855
17 *612:22 *618:38 0.00018755
18 *613:12 *618:22 0.000792206
19 *613:18 *618:38 8.13995e-05
20 *617:22 *618:22 0.000104413
21 *617:42 *618:38 0.000111972
*RES
1 *1579:q[15] *618:22 47.4273 
2 *618:22 *618:38 41.1661 
3 *618:38 *618:46 36.815 
4 *618:46 *1546:A 38 
*END

*D_NET *619 0.0127142
*CONN
*I *1542:A I *D sky130_fd_sc_hd__clkdlybuf4s25_1
*I *1579:q[16] O *D incrementer
*CAP
1 *1542:A 0
2 *1579:q[16] 0.00260701
3 *619:28 0.000114263
4 *619:18 0.00272127
5 *619:18 *620:30 5.78881e-06
6 *619:18 *621:26 0
7 *619:18 *623:16 0.000140938
8 *619:18 *625:16 0.000135418
9 *619:18 *626:16 0.000402726
10 *619:18 *627:22 0.000681781
11 *619:18 *628:22 0.000203275
12 *619:18 *629:16 0.000943455
13 *619:18 *631:24 2.79505e-05
14 *619:28 *623:16 4.57385e-05
15 *619:28 *629:22 2.12347e-06
16 *1579:clk *619:28 9.3762e-05
17 *138:22 *619:28 8.06238e-05
18 *617:22 *619:18 0.00218658
19 *618:22 *619:18 0.00232152
*RES
1 *1579:q[16] *619:18 44.852 
2 *619:18 *619:28 32.4764 
3 *619:28 *1542:A 23 
*END

*D_NET *620 0.0259656
*CONN
*I *1310:A1 I *D sky130_fd_sc_hd__a22o_2
*I *1539:A I *D sky130_fd_sc_hd__clkdlybuf4s25_1
*I *1579:q[17] O *D incrementer
*CAP
1 *1310:A1 0.000844809
2 *1539:A 0
3 *1579:q[17] 0.00553999
4 *620:38 0.0010326
5 *620:30 0.00572779
6 *620:30 *621:26 1.12653e-05
7 *620:30 *621:46 0.0015043
8 *620:30 *622:22 0.000699549
9 *620:30 *630:24 9.14883e-05
10 *620:30 *631:54 8.86345e-05
11 *1068:D_N *1310:A1 5.50049e-05
12 *1310:B1 *1310:A1 5.79559e-05
13 *64:30 *620:30 0.000177152
14 *169:16 *1310:A1 0.000556198
15 *170:12 *1310:A1 0.000734069
16 *170:12 *620:38 0.000117087
17 *170:27 *1310:A1 9.49528e-05
18 *191:30 *620:30 0.00143344
19 *211:24 *620:30 4.51815e-05
20 *261:28 *620:30 0
21 *350:22 *620:30 0.000250437
22 *381:12 *1310:A1 0.000156821
23 *381:12 *620:38 5.67058e-05
24 *581:10 *620:38 5.79438e-05
25 *581:31 *620:38 0.000114856
26 *583:22 *620:38 0
27 *584:70 *620:30 0.00212442
28 *588:10 *1310:A1 5.3304e-05
29 *589:23 *1310:A1 2.1819e-05
30 *589:35 *1310:A1 0.000119544
31 *590:8 *1310:A1 4.75937e-05
32 *590:51 *1310:A1 1.09903e-05
33 *590:51 *620:38 1.24376e-05
34 *596:45 *620:30 0.000942975
35 *612:54 *620:30 1.07055e-05
36 *614:28 *620:30 0.00241121
37 *615:22 *620:30 0
38 *616:32 *620:30 0.0001044
39 *617:61 *620:30 0.000652169
40 *619:18 *620:30 5.78881e-06
*RES
1 *1579:q[17] *620:30 48.528 
2 *620:30 *620:38 26.0554 
3 *620:38 *1539:A 23 
4 *620:38 *1310:A1 41.9536 
*END

*D_NET *621 0.0329677
*CONN
*I *1538:A I *D sky130_fd_sc_hd__clkdlybuf4s25_1
*I *1537:A I *D sky130_fd_sc_hd__clkdlybuf4s25_1
*I *1579:q[18] O *D incrementer
*CAP
1 *1538:A 0
2 *1537:A 0.000167859
3 *1579:q[18] 0.00222103
4 *621:93 0.000397769
5 *621:74 0.000885266
6 *621:72 0.0017678
7 *621:56 0.0016812
8 *621:46 0.00240584
9 *621:26 0.00439383
10 *621:26 *622:22 0.000778724
11 *621:26 *630:24 7.32029e-05
12 *621:26 *631:24 0.000144615
13 *621:46 *623:28 0.000630782
14 *621:46 *629:22 0.000458246
15 *621:46 *629:43 0.000812569
16 *621:46 *630:44 5.52182e-05
17 *621:72 *624:59 0.000626042
18 *621:72 *624:75 0.000682091
19 *1069:C1 *1537:A 5.3304e-05
20 *1110:A *621:72 7.25611e-05
21 *1222:B1 *621:74 7.76284e-05
22 *1233:A1 *621:72 7.51453e-06
23 *1233:A2 *621:72 3.29546e-05
24 *1279:A *621:72 0.000117609
25 *1319:B1 *621:93 4.34745e-05
26 *1319:B2 *621:93 0.000174347
27 *1321:A2 *621:93 0.000244301
28 *123:10 *621:72 2.1369e-05
29 *132:30 *621:46 6.43574e-05
30 *141:28 *621:46 5.30124e-05
31 *141:34 *621:46 0.000351012
32 *141:49 *621:46 5.43589e-05
33 *143:24 *621:72 2.42041e-05
34 *170:12 *1537:A 0.000199317
35 *170:12 *621:74 0.000201024
36 *173:18 *621:46 8.62876e-05
37 *173:22 *621:72 3.71224e-05
38 *174:40 *1537:A 0.00012797
39 *174:40 *621:74 0.000209412
40 *197:61 *621:74 1.85275e-05
41 *207:14 *621:72 5.56356e-05
42 *207:22 *621:72 2.95753e-05
43 *210:24 *621:72 1.94463e-05
44 *212:10 *621:93 5.60174e-05
45 *261:28 *621:46 3.66136e-05
46 *277:25 *621:72 8.70828e-05
47 *278:43 *621:72 0.000392597
48 *280:66 *621:72 4.44329e-05
49 *280:76 *621:72 9.65021e-05
50 *284:22 *621:72 0.000447677
51 *285:26 *621:56 0.000223795
52 *285:26 *621:72 0.000168917
53 *287:16 *621:46 0.000157887
54 *298:8 *621:72 4.30894e-05
55 *299:65 *621:74 7.5366e-05
56 *306:32 *621:46 1.1709e-05
57 *306:32 *621:56 1.1997e-05
58 *337:12 *621:72 9.91024e-05
59 *461:97 *621:72 8.48518e-05
60 *497:44 *621:72 3.69289e-05
61 *573:8 *621:56 5.43589e-05
62 *579:39 *621:72 4.98109e-05
63 *581:46 *621:93 0.000349807
64 *585:12 *1537:A 5.50106e-05
65 *585:45 *621:93 3.5842e-05
66 *588:10 *1537:A 0
67 *588:35 *621:93 0.000602999
68 *588:54 *621:93 5.50106e-05
69 *596:12 *621:46 0.000215611
70 *596:45 *621:46 0.00109363
71 *596:85 *1537:A 8.30566e-06
72 *596:85 *621:74 0.000124168
73 *612:22 *621:46 0.000269425
74 *613:8 *621:26 6.96501e-05
75 *614:28 *621:26 0
76 *615:22 *621:26 0.000581182
77 *616:26 *621:26 0.00169314
78 *616:26 *621:46 0.00136229
79 *617:22 *621:26 2.45223e-05
80 *617:22 *621:46 0.0019212
81 *617:42 *621:46 4.55238e-05
82 *617:61 *621:46 0.00020763
83 *619:18 *621:26 0
84 *620:30 *621:26 1.12653e-05
85 *620:30 *621:46 0.0015043
*RES
1 *1579:q[18] *621:26 49.4435 
2 *621:26 *621:46 42.2869 
3 *621:46 *621:56 48.3764 
4 *621:56 *621:72 46.5658 
5 *621:72 *621:74 7.01179 
6 *621:74 *1537:A 41.5836 
7 *621:74 *621:93 27.6979 
8 *621:93 *1538:A 23 
*END

*D_NET *622 0.0116743
*CONN
*I *1536:A I *D sky130_fd_sc_hd__clkdlybuf4s25_1
*I *1579:q[19] O *D incrementer
*CAP
1 *1536:A 1.69134e-05
2 *1579:q[19] 0.00216231
3 *622:22 0.00217923
4 *622:22 *623:16 2.19758e-05
5 *622:22 *628:22 0.000798839
6 *622:22 *629:16 0.000145818
7 *622:22 *631:24 0.000145646
8 *1579:inc *622:22 0.000392981
9 *328:6 *1536:A 1.73238e-05
10 *613:26 *1536:A 8.60002e-06
11 *615:22 *622:22 0.00180068
12 *616:26 *622:22 0.0018261
13 *618:38 *622:22 0.000679652
14 *618:46 *622:22 0
15 *620:30 *622:22 0.000699549
16 *621:26 *622:22 0.000778724
*RES
1 *1579:q[19] *622:22 49.3388 
2 *622:22 *1536:A 38.3573 
*END

*D_NET *623 0.0496723
*CONN
*I *1578:addr[1] I *D tt_rom
*I *1532:A I *D sky130_fd_sc_hd__clkdlybuf4s25_1
*I *640:DIODE I *D sky130_fd_sc_hd__diode_2
*I *1579:q[1] O *D incrementer
*CAP
1 *1578:addr[1] 0.00519379
2 *1532:A 0
3 *640:DIODE 0
4 *1579:q[1] 0.00249846
5 *623:60 0.00682289
6 *623:35 0.00173655
7 *623:28 0.000883641
8 *623:16 0.00327466
9 *1578:addr[1] *1578:addr[2] 1.12573e-05
10 *1578:addr[1] *624:75 1.58513e-05
11 *623:16 *624:28 0.000155558
12 *623:16 *625:16 0.000406204
13 *623:16 *628:22 1.42045e-05
14 *623:16 *631:24 3.89049e-05
15 *623:16 *631:32 1.88865e-05
16 *623:28 *624:28 0.000869057
17 *623:60 *629:28 7.13256e-05
18 *1578:addr[0] *1578:addr[1] 2.99605e-05
19 *1578:addr[5] *1578:addr[1] 0.00140261
20 *134:31 *623:60 0.00163909
21 *211:24 *1578:addr[1] 0.00133633
22 *258:66 *623:28 6.56284e-05
23 *259:24 *1578:addr[1] 0.000821371
24 *261:28 *623:28 3.25947e-05
25 *271:10 *623:28 2.97594e-05
26 *279:48 *1578:addr[1] 0.000153284
27 *284:64 *1578:addr[1] 1.0884e-05
28 *284:64 *623:60 5.02825e-05
29 *284:82 *623:28 0.000362338
30 *284:82 *623:60 0.00136724
31 *287:41 *1578:addr[1] 0.000193535
32 *287:41 *623:60 1.02995e-05
33 *306:32 *623:60 4.02018e-05
34 *312:20 *623:35 0.000189272
35 *312:20 *623:60 9.91701e-05
36 *319:37 *623:35 0.000351513
37 *319:37 *623:60 0.000169589
38 *319:43 *623:60 1.05364e-05
39 *322:24 *623:28 0.000352154
40 *322:24 *623:60 0.00038022
41 *446:22 *1578:addr[1] 0.00120206
42 *472:50 *623:60 0.00079156
43 *478:12 *1578:addr[1] 0.000442165
44 *478:16 *1578:addr[1] 0.000426478
45 *478:28 *1578:addr[1] 0.000808001
46 *558:53 *1578:addr[1] 0.000958831
47 *577:43 *1578:addr[1] 5.44993e-06
48 *577:43 *623:60 2.93396e-05
49 *602:73 *1578:addr[1] 0.0011439
50 *612:54 *1578:addr[1] 0.00955527
51 *612:54 *623:60 0.000587861
52 *613:12 *623:16 0.000657631
53 *616:26 *623:28 5.54519e-05
54 *618:22 *623:16 6.43972e-05
55 *618:38 *623:16 0.000995425
56 *619:18 *623:16 0.000140938
57 *619:28 *623:16 4.57385e-05
58 *621:46 *623:28 0.000630782
59 *622:22 *623:16 2.19758e-05
*RES
1 *1579:q[1] *623:16 49.5467 
2 *623:16 *623:28 35.1931 
3 *623:28 *640:DIODE 23 
4 *623:28 *623:35 3.95643 
5 *623:35 *1532:A 23 
6 *623:35 *623:60 49.1195 
7 *623:60 *1578:addr[1] 49.5708 
*END

*D_NET *624 0.0491609
*CONN
*I *1531:A I *D sky130_fd_sc_hd__clkdlybuf4s25_1
*I *1578:addr[2] I *D tt_rom
*I *641:DIODE I *D sky130_fd_sc_hd__diode_2
*I *1579:q[2] O *D incrementer
*CAP
1 *1531:A 5.40062e-05
2 *1578:addr[2] 6.05486e-05
3 *641:DIODE 0
4 *1579:q[2] 0.00195758
5 *624:83 0.000686009
6 *624:75 0.00702734
7 *624:59 0.0089232
8 *624:45 0.00267097
9 *624:38 0.000243261
10 *624:28 0.00210519
11 *1578:addr[2] *1578:addr[3] 1.96008e-05
12 *624:28 *628:22 0.000435406
13 *624:28 *629:22 0.000129441
14 *624:28 *631:24 9.06993e-05
15 *624:28 *631:32 0.000117018
16 *624:28 *633:24 0.000190113
17 *624:59 *626:28 5.96491e-05
18 *624:75 *625:46 0.00130583
19 *1203:B1 *624:38 0.000115478
20 *1443:RESET_B *1531:A 5.56356e-05
21 *1443:RESET_B *624:45 0.00026025
22 *1443:RESET_B *624:59 0.000113633
23 *1466:RESET_B *624:75 0.0023055
24 *1578:addr[1] *1578:addr[2] 1.12573e-05
25 *1578:addr[1] *624:75 1.58513e-05
26 *1578:addr[4] *624:75 0.00199448
27 *1578:addr[4] *624:83 0.000449837
28 *1578:addr[5] *624:75 0.00110758
29 *1579:clk *624:28 0
30 *1579:inc *624:28 0.000126331
31 *64:30 *624:59 8.56952e-06
32 *142:22 *624:38 7.45678e-05
33 *173:22 *624:59 2.14643e-05
34 *197:28 *624:75 0.00106766
35 *197:38 *624:75 0.00081856
36 *200:26 *624:75 0.00200338
37 *258:66 *624:59 8.30566e-06
38 *259:24 *624:59 0.00146875
39 *261:28 *624:28 0
40 *271:18 *624:38 5.79466e-05
41 *275:14 *624:59 8.19494e-05
42 *280:45 *624:59 3.33204e-05
43 *280:45 *624:75 0.000171258
44 *290:28 *624:59 9.54602e-05
45 *307:32 *624:59 0.000190628
46 *307:53 *624:59 5.1254e-05
47 *311:34 *1531:A 8.62044e-05
48 *311:34 *624:45 0.000261951
49 *321:33 *1531:A 1.34914e-05
50 *321:33 *624:59 3.15611e-05
51 *330:22 *624:59 1.8399e-05
52 *348:12 *624:75 7.35376e-05
53 *408:18 *624:75 1.25096e-05
54 *409:18 *624:75 0
55 *473:65 *624:59 0.000122047
56 *478:12 *624:75 0.000274476
57 *478:16 *624:75 0.00028331
58 *557:28 *624:75 0.000718506
59 *577:26 *624:38 0.000137796
60 *577:43 *624:75 0.000883022
61 *578:16 *624:59 1.43151e-05
62 *578:56 *624:59 0.00141567
63 *579:27 *624:59 0.00226649
64 *584:10 *624:28 9.80616e-05
65 *602:73 *624:75 7.89435e-05
66 *612:22 *624:28 5.42359e-06
67 *612:54 *624:75 0.000412356
68 *613:18 *624:28 0.000197088
69 *616:26 *624:28 0.000375945
70 *618:38 *624:28 0.000262318
71 *621:72 *624:59 0.000626042
72 *621:72 *624:75 0.000682091
73 *623:16 *624:28 0.000155558
74 *623:28 *624:28 0.000869057
*RES
1 *1579:q[2] *624:28 44.3257 
2 *624:28 *624:38 33.0003 
3 *624:38 *641:DIODE 23 
4 *624:38 *624:45 3.00357 
5 *624:45 *624:59 33.8869 
6 *624:59 *624:75 42.2435 
7 *624:75 *624:83 35.7911 
8 *624:83 *1578:addr[2] 16.2014 
9 *624:45 *1531:A 24.595 
*END

*D_NET *625 0.0423405
*CONN
*I *1530:A I *D sky130_fd_sc_hd__clkdlybuf4s25_1
*I *642:DIODE I *D sky130_fd_sc_hd__diode_2
*I *1578:addr[3] I *D tt_rom
*I *1579:q[3] O *D incrementer
*CAP
1 *1530:A 3.38673e-05
2 *642:DIODE 0.000606049
3 *1578:addr[3] 2.67797e-05
4 *1579:q[3] 0.00334429
5 *625:46 0.000794069
6 *625:22 0.00473526
7 *625:20 0.00413904
8 *625:16 0.00408754
9 *642:DIODE *630:44 0.000489845
10 *625:16 *626:16 0.000211774
11 *625:16 *627:22 0.000525905
12 *625:16 *631:24 4.10826e-05
13 *625:16 *631:32 0.00146953
14 *625:20 *630:44 0.000156645
15 *1019:A *642:DIODE 0.000112797
16 *1270:A1 *642:DIODE 0
17 *1275:A1 *1530:A 5.50106e-05
18 *1277:B1 *642:DIODE 0.000126166
19 *1578:addr[0] *625:46 1.36897e-05
20 *1578:addr[2] *1578:addr[3] 1.96008e-05
21 *1578:addr[4] *1578:addr[3] 1.37287e-05
22 *1578:addr[7] *625:46 2.04785e-05
23 *257:30 *625:16 0.0012746
24 *261:28 *625:22 0.000479029
25 *324:35 *642:DIODE 1.55722e-05
26 *324:53 *642:DIODE 4.70781e-05
27 *327:10 *642:DIODE 0
28 *452:16 *625:22 0.0013196
29 *452:16 *625:46 3.87221e-06
30 *453:28 *625:22 0.000658405
31 *453:28 *625:46 4.93791e-05
32 *504:35 *642:DIODE 1.89587e-05
33 *591:29 *625:16 1.73439e-05
34 *595:12 *625:20 0
35 *595:55 *625:22 0.000393004
36 *608:59 *625:22 0.00105474
37 *612:22 *625:16 0.00101662
38 *612:54 *625:46 0.00108634
39 *613:12 *625:16 0.000104405
40 *613:26 *625:16 0.000113639
41 *613:30 *625:22 0.00550524
42 *613:54 *625:22 0.0055077
43 *614:28 *625:22 0.000675621
44 *618:22 *625:16 0.000128784
45 *619:18 *625:16 0.000135418
46 *623:16 *625:16 0.000406204
47 *624:75 *625:46 0.00130583
*RES
1 *1579:q[3] *625:16 42.9051 
2 *625:16 *625:20 17.7861 
3 *625:20 *625:22 134.974 
4 *625:22 *625:46 44.366 
5 *625:46 *1578:addr[3] 8.54893 
6 *625:16 *642:DIODE 48.1811 
7 *642:DIODE *1530:A 46.6214 
*END

*D_NET *626 0.0153313
*CONN
*I *1529:A I *D sky130_fd_sc_hd__clkdlybuf4s25_1
*I *1579:q[4] O *D incrementer
*CAP
1 *1529:A 0
2 *1579:q[4] 0.00289302
3 *626:28 0.00148464
4 *626:16 0.00437766
5 *626:16 *627:22 0.00182831
6 *1442:RESET_B *626:28 0.000261724
7 *1524:A *626:28 0
8 *64:30 *626:28 0.000768696
9 *127:28 *626:28 1.2883e-05
10 *143:32 *626:28 2.19162e-05
11 *257:30 *626:28 0.000693915
12 *275:22 *626:28 8.62074e-05
13 *284:82 *626:28 7.06451e-05
14 *313:18 *626:28 6.56284e-05
15 *314:14 *626:28 0
16 *324:10 *626:28 4.94766e-06
17 *324:22 *626:28 0.000151066
18 *334:16 *626:28 1.02426e-05
19 *449:111 *626:28 4.30894e-05
20 *492:26 *626:28 3.38832e-05
21 *492:37 *626:28 0.000148093
22 *504:35 *626:28 1.31002e-05
23 *578:39 *626:28 3.62045e-05
24 *579:27 *626:28 1.75703e-05
25 *612:22 *626:16 0.000889294
26 *617:22 *626:16 0.000744414
27 *619:18 *626:16 0.000402726
28 *624:59 *626:28 5.96491e-05
29 *625:16 *626:16 0.000211774
*RES
1 *1579:q[4] *626:16 40.568 
2 *626:16 *626:28 35.592 
3 *626:28 *1529:A 38 
*END

*D_NET *627 0.0189138
*CONN
*I *1523:A I *D sky130_fd_sc_hd__clkdlybuf4s25_1
*I *1579:q[5] O *D incrementer
*CAP
1 *1523:A 0.000169914
2 *1579:q[5] 0.00518353
3 *627:22 0.00535344
4 *627:22 *628:22 7.03302e-06
5 *140:12 *627:22 0.000119516
6 *144:26 *627:22 0.00114397
7 *259:40 *627:22 0.000204821
8 *474:18 *627:22 0.00054023
9 *474:39 *627:22 0.000220501
10 *488:22 *627:22 0.000432656
11 *563:42 *627:22 0.000168873
12 *566:10 *1523:A 9.81784e-05
13 *568:28 *1523:A 0.000236586
14 *612:22 *627:22 0.00144363
15 *617:22 *627:22 0.000144934
16 *618:22 *627:22 0.000410021
17 *619:18 *627:22 0.000681781
18 *625:16 *627:22 0.000525905
19 *626:16 *627:22 0.00182831
*RES
1 *1579:q[5] *627:22 42.4203 
2 *627:22 *1523:A 49.4904 
*END

*D_NET *628 0.0178415
*CONN
*I *1519:A I *D sky130_fd_sc_hd__clkdlybuf4s25_1
*I *1075:B I *D sky130_fd_sc_hd__nand2b_2
*I *1579:q[6] O *D incrementer
*CAP
1 *1519:A 0.000499562
2 *1075:B 0
3 *1579:q[6] 0.0029148
4 *628:30 0.00140431
5 *628:22 0.00381954
6 *628:22 *629:16 0.00167346
7 *628:22 *631:24 0.000925679
8 *628:22 *631:32 0.000398283
9 *1329:A1 *1519:A 7.41402e-05
10 *130:32 *628:30 0.00175594
11 *177:12 *1519:A 0.000206253
12 *177:12 *628:30 6.77278e-05
13 *177:29 *1519:A 0.000102827
14 *179:66 *628:30 0.000248073
15 *261:28 *628:22 0
16 *384:8 *1519:A 5.10686e-05
17 *462:50 *1519:A 0.000185183
18 *472:28 *628:30 3.00618e-05
19 *563:12 *1519:A 0.000147704
20 *563:12 *628:30 6.77278e-05
21 *566:10 *1519:A 0.000116554
22 *566:14 *628:30 0.000496332
23 *566:26 *628:30 0.000476571
24 *568:28 *1519:A 0.000100862
25 *568:36 *1519:A 4.67488e-05
26 *575:49 *628:30 0.000428126
27 *616:26 *628:22 0.0001312
28 *617:22 *628:22 1.398e-05
29 *619:18 *628:22 0.000203275
30 *622:22 *628:22 0.000798839
31 *623:16 *628:22 1.42045e-05
32 *624:28 *628:22 0.000435406
33 *627:22 *628:22 7.03302e-06
*RES
1 *1579:q[6] *628:22 42.6083 
2 *628:22 *628:30 21.3318 
3 *628:30 *1075:B 38 
4 *628:30 *1519:A 49.1236 
*END

*D_NET *629 0.0174306
*CONN
*I *1516:A I *D sky130_fd_sc_hd__clkdlybuf4s25_1
*I *1517:A I *D sky130_fd_sc_hd__clkdlybuf4s25_1
*I *1579:q[7] O *D incrementer
*CAP
1 *1516:A 0
2 *1517:A 0
3 *1579:q[7] 0.000684344
4 *629:43 0.000366047
5 *629:28 0.00120478
6 *629:22 0.00257781
7 *629:16 0.00169132
8 *629:16 *630:24 1.12653e-05
9 *629:16 *631:24 0.00105054
10 *629:16 *633:24 0.000163073
11 *629:43 *630:44 0.000523505
12 *1023:B *629:22 0.000136486
13 *1078:A *629:43 2.4754e-05
14 *1259:B *629:28 1.70724e-05
15 *75:8 *629:43 3.24898e-05
16 *126:12 *629:22 2.81501e-05
17 *138:22 *629:22 0.000227545
18 *179:8 *629:43 5.3304e-05
19 *179:14 *629:43 8.81675e-05
20 *313:26 *629:28 7.77874e-05
21 *319:43 *629:28 0
22 *320:12 *629:28 0
23 *324:22 *629:22 0.00087046
24 *324:35 *629:22 0.000409874
25 *324:35 *629:28 1.83404e-05
26 *324:35 *629:43 0.000165186
27 *326:18 *629:28 5.43589e-05
28 *327:10 *629:28 2.64768e-05
29 *449:94 *629:28 0
30 *488:8 *629:28 0.000232481
31 *490:42 *629:22 0.00014633
32 *504:35 *629:22 2.51564e-05
33 *504:35 *629:43 8.17923e-05
34 *564:37 *629:43 9.41704e-05
35 *568:10 *629:28 3.56382e-05
36 *571:40 *629:28 0.000160717
37 *577:10 *629:28 0.000696386
38 *578:10 *629:28 4.30785e-05
39 *584:10 *629:22 0.000159648
40 *599:35 *629:28 8.34128e-05
41 *599:49 *629:28 2.54187e-05
42 *612:22 *629:22 0.000775811
43 *613:18 *629:22 0
44 *616:26 *629:16 0.000130986
45 *619:18 *629:16 0.000943455
46 *619:28 *629:22 2.12347e-06
47 *621:46 *629:22 0.000458246
48 *621:46 *629:43 0.000812569
49 *622:22 *629:16 0.000145818
50 *623:60 *629:28 7.13256e-05
51 *624:28 *629:22 0.000129441
52 *628:22 *629:16 0.00167346
*RES
1 *1579:q[7] *629:16 36.9691 
2 *629:16 *629:22 23.9867 
3 *629:22 *629:28 44.4496 
4 *629:28 *1517:A 23 
5 *629:22 *629:43 27.077 
6 *629:43 *1516:A 23 
*END

*D_NET *630 0.0198335
*CONN
*I *1323:A I *D sky130_fd_sc_hd__nor2_2
*I *1073:A I *D sky130_fd_sc_hd__nand2_2
*I *1325:B2 I *D sky130_fd_sc_hd__a22o_2
*I *1017:A I *D sky130_fd_sc_hd__inv_2
*I *1579:q[8] O *D incrementer
*CAP
1 *1323:A 0
2 *1073:A 0
3 *1325:B2 0
4 *1017:A 0
5 *1579:q[8] 0.00234924
6 *630:108 0.00020647
7 *630:93 0.000253048
8 *630:84 0.000347947
9 *630:76 0.000542992
10 *630:72 0.0008654
11 *630:62 0.00115126
12 *630:44 0.00184907
13 *630:24 0.00376398
14 *630:24 *631:24 3.61403e-06
15 *642:DIODE *630:44 0.000489845
16 *1018:A *630:84 0.000205064
17 *1018:A *630:108 0.000179598
18 *1087:A1_N *630:72 2.13216e-05
19 *1087:A2_N *630:72 6.15106e-05
20 *1087:B1 *630:72 2.45093e-05
21 *1087:B1 *630:76 2.41378e-06
22 *1087:B2 *630:72 5.73309e-05
23 *1089:A *630:44 0.000344682
24 *1091:A *630:72 9.84794e-05
25 *1294:B *630:84 0.000141087
26 *1294:B *630:108 1.05441e-05
27 *1325:A2 *630:76 6.17437e-06
28 *1325:A2 *630:93 2.02872e-05
29 *1325:A2 *630:108 5.3304e-05
30 *1325:B1 *630:93 1.75562e-05
31 *64:14 *630:62 0.00010944
32 *132:10 *630:62 5.3304e-05
33 *132:10 *630:84 2.93845e-05
34 *132:18 *630:44 2.56419e-05
35 *132:18 *630:62 5.9539e-05
36 *132:30 *630:44 3.94106e-05
37 *133:19 *630:84 3.39192e-05
38 *174:8 *630:108 5.50106e-05
39 *174:10 *630:108 0
40 *175:8 *630:84 2.90725e-05
41 *188:8 *630:72 0.000161762
42 *195:12 *630:72 0.000265812
43 *261:28 *630:24 0.000651283
44 *306:32 *630:44 4.67227e-05
45 *337:12 *630:62 5.62433e-06
46 *449:22 *630:62 4.51926e-05
47 *456:212 *630:62 8.26142e-05
48 *474:39 *630:84 0.000101724
49 *474:70 *630:84 0
50 *497:8 *630:44 6.10551e-06
51 *504:35 *630:44 0.000150956
52 *584:70 *630:62 0.000172671
53 *595:55 *630:72 8.06346e-05
54 *596:45 *630:44 0.00114527
55 *596:55 *630:72 0.000447288
56 *612:54 *630:44 0.00169661
57 *612:54 *630:62 0.00010751
58 *616:26 *630:24 5.84708e-05
59 *617:22 *630:24 0.000194485
60 *620:30 *630:24 9.14883e-05
61 *621:26 *630:24 7.32029e-05
62 *621:46 *630:44 5.52182e-05
63 *625:20 *630:44 0.000156645
64 *629:16 *630:24 1.12653e-05
65 *629:43 *630:44 0.000523505
*RES
1 *1579:q[8] *630:24 41.5984 
2 *630:24 *630:44 49.436 
3 *630:44 *630:62 37.6077 
4 *630:62 *630:72 30.5771 
5 *630:72 *630:76 2.54786 
6 *630:76 *630:84 36.7529 
7 *630:84 *1017:A 23 
8 *630:76 *630:93 1.11857 
9 *630:93 *1325:B2 23 
10 *630:93 *630:108 33.8529 
11 *630:108 *1073:A 23 
12 *630:72 *1323:A 23 
*END

*D_NET *631 0.0235668
*CONN
*I *1324:A I *D sky130_fd_sc_hd__nor2_2
*I *1515:A I *D sky130_fd_sc_hd__clkdlybuf4s25_1
*I *1579:q[9] O *D incrementer
*CAP
1 *1324:A 0
2 *1515:A 0
3 *1579:q[9] 0.00171636
4 *631:67 0.00116006
5 *631:54 0.000637005
6 *631:32 0.00323518
7 *631:24 0.00315448
8 *1018:A *631:67 1.74874e-06
9 *1096:A1 *631:54 0.000100069
10 *1096:B1 *631:54 0.00012907
11 *1324:B *631:67 2.75733e-06
12 *125:38 *631:54 2.26497e-05
13 *141:34 *631:54 0
14 *193:8 *631:54 0
15 *193:24 *631:67 1.02995e-05
16 *257:30 *631:32 0.00151476
17 *257:30 *631:67 0.00101893
18 *260:12 *631:67 1.76364e-05
19 *261:28 *631:32 0.00255028
20 *261:28 *631:67 0.000311784
21 *456:212 *631:54 2.35785e-05
22 *461:97 *631:67 3.88045e-05
23 *472:66 *631:67 0.000575544
24 *473:83 *631:67 0.000217734
25 *580:44 *631:67 0.000169703
26 *591:29 *631:67 0.000110806
27 *595:55 *631:67 0.000709657
28 *614:28 *631:67 0.000285434
29 *616:26 *631:24 0.000356436
30 *616:26 *631:32 0.000163584
31 *617:61 *631:54 9.09987e-05
32 *618:38 *631:24 0.000680398
33 *619:18 *631:24 2.79505e-05
34 *620:30 *631:54 8.86345e-05
35 *621:26 *631:24 0.000144615
36 *622:22 *631:24 0.000145646
37 *623:16 *631:24 3.89049e-05
38 *623:16 *631:32 1.88865e-05
39 *624:28 *631:24 9.06993e-05
40 *624:28 *631:32 0.000117018
41 *625:16 *631:24 4.10826e-05
42 *625:16 *631:32 0.00146953
43 *628:22 *631:24 0.000925679
44 *628:22 *631:32 0.000398283
45 *629:16 *631:24 0.00105054
46 *630:24 *631:24 3.61403e-06
*RES
1 *1579:q[9] *631:24 47.2221 
2 *631:24 *631:32 23.1829 
3 *631:32 *631:54 43.2261 
4 *631:54 *1515:A 23 
5 *631:32 *631:67 27.7992 
6 *631:67 *1324:A 23 
*END

*D_NET *632 0.000486923
*CONN
*I *1581:B I *D sky130_fd_sc_hd__and2_1
*I *1582:Y O *D sky130_fd_sc_hd__nand4_1
*CAP
1 *1581:B 6.69546e-05
2 *1582:Y 6.69546e-05
3 *61:10 *1581:B 5.68958e-05
4 *138:22 *1581:B 0.000220606
5 *617:42 *1581:B 7.55121e-05
*RES
1 *1582:Y *1581:B 49.045 
*END

*D_NET *633 0.00180236
*CONN
*I *1579:rst_n I *D incrementer
*I *1581:X O *D sky130_fd_sc_hd__and2_1
*CAP
1 *1579:rst_n 0
2 *1581:X 0.000196022
3 *633:24 0.000338466
4 *633:8 0.000534488
5 *1579:clk *633:8 0
6 *1579:clk *633:24 3.87221e-06
7 *612:22 *633:24 7.58805e-06
8 *613:18 *633:24 0.000368743
9 *624:28 *633:24 0.000190113
10 *629:16 *633:24 0.000163073
*RES
1 *1581:X *633:8 41.6664 
2 *633:8 *633:24 42.8926 
3 *633:24 *1579:rst_n 8 
*END

*D_NET *634 0.00499062
*CONN
*I *1086:B I *D sky130_fd_sc_hd__and2b_2
*I *1422:D I *D sky130_fd_sc_hd__dfxtp_2
*I *1085:Y O *D sky130_fd_sc_hd__nor3_2
*CAP
1 *1086:B 0.000175307
2 *1422:D 0.000314601
3 *1085:Y 1.08631e-05
4 *634:10 0.00144048
5 *634:8 0.000961437
6 *1422:D *635:29 7.2913e-05
7 *1117:A *634:10 4.15283e-06
8 *1121:A *1422:D 0
9 *1121:A *634:10 0
10 *1134:B *634:10 0
11 *1307:A1 *634:10 0
12 *1316:B *634:10 0.000133543
13 *1317:B *634:10 5.64492e-05
14 *1320:S *634:10 0
15 *1353:A *1086:B 0.000130348
16 *1353:B *1422:D 5.58152e-06
17 *169:16 *634:8 5.50106e-05
18 *183:14 *634:10 0.000113208
19 *189:30 *1422:D 0.000231205
20 *192:8 *1422:D 0
21 *198:22 *1422:D 0.000231205
22 *200:54 *634:10 5.85486e-05
23 *200:73 *634:10 0.000129007
24 *223:26 *634:10 0
25 *231:10 *634:10 1.06175e-05
26 *409:10 *1422:D 2.47015e-05
27 *557:71 *1422:D 0
28 *557:71 *634:10 0
29 *581:54 *634:10 0.000228582
30 *586:25 *634:10 0.000497764
31 *589:16 *634:8 5.67058e-05
32 *615:63 *634:10 4.83846e-05
*RES
1 *1085:Y *634:8 38.6214 
2 *634:8 *634:10 15.8154 
3 *634:10 *1422:D 44.6855 
4 *634:10 *1086:B 40.8689 
*END

*D_NET *635 0.00590707
*CONN
*I *1086:A_N I *D sky130_fd_sc_hd__and2b_2
*I *1497:A I *D sky130_fd_sc_hd__buf_2
*I *1422:Q O *D sky130_fd_sc_hd__dfxtp_2
*CAP
1 *1086:A_N 0
2 *1497:A 0.000294954
3 *1422:Q 0.000168938
4 *635:29 0.000206421
5 *635:12 0.0015201
6 *635:6 0.0016005
7 *635:12 *636:31 3.63546e-05
8 *1102:A *635:12 3.7122e-06
9 *1327:A *635:12 0.000211125
10 *1385:A *635:12 0
11 *1422:D *635:29 7.2913e-05
12 *41:10 *1497:A 0.000148065
13 *82:8 *635:12 7.30978e-05
14 *198:22 *635:6 7.8257e-05
15 *198:22 *635:12 0.000141483
16 *342:14 *635:12 0.000228204
17 *378:8 *635:12 0.000308218
18 *402:8 *635:12 0
19 *419:16 *635:12 0.000344103
20 *421:8 *635:12 1.47563e-05
21 *422:8 *635:12 1.84194e-05
22 *426:18 *635:12 0
23 *436:10 *635:12 0
24 *444:10 *635:12 0
25 *444:10 *635:29 0
26 *456:70 *635:12 0.000180823
27 *456:158 *635:12 0.000223043
28 *516:72 *635:29 0
29 *556:12 *635:12 3.3577e-05
*RES
1 *1422:Q *635:6 25.5271 
2 *635:6 *635:12 39.1943 
3 *635:12 *1497:A 43.8829 
4 *635:6 *635:29 33.6664 
5 *635:29 *1086:A_N 23 
*END

*D_NET *636 0.00433188
*CONN
*I *1345:A I *D sky130_fd_sc_hd__nor2_2
*I *1392:A0 I *D sky130_fd_sc_hd__mux2_1
*I *1475:Q O *D sky130_fd_sc_hd__dfxtp_2
*CAP
1 *1345:A 0
2 *1392:A0 0
3 *1475:Q 0
4 *636:39 0.000177549
5 *636:31 0.00104985
6 *636:12 0.000293148
7 *636:4 0.00116545
8 *636:39 *637:45 0.000262434
9 *1343:C *636:31 4.67488e-05
10 *1346:C1 *636:39 2.71291e-05
11 *1367:A1 *636:39 9.31289e-05
12 *1367:B1 *636:39 5.3304e-05
13 *318:14 *636:12 2.04313e-05
14 *361:18 *636:39 5.3304e-05
15 *383:23 *636:31 0.000262864
16 *383:51 *636:31 4.5051e-05
17 *398:22 *636:12 2.30292e-05
18 *398:22 *636:31 0.000123517
19 *399:6 *636:31 5.67058e-05
20 *400:8 *636:12 8.25782e-05
21 *402:8 *636:31 5.0619e-05
22 *444:10 *636:31 2.24608e-05
23 *459:20 *636:12 1.10105e-05
24 *596:100 *636:12 2.3191e-05
25 *596:100 *636:31 0.000352021
26 *635:12 *636:31 3.63546e-05
*RES
1 *1475:Q *636:4 23 
2 *636:4 *636:12 34.205 
3 *636:12 *1392:A0 23 
4 *636:4 *636:31 44.9764 
5 *636:31 *636:39 34.2879 
6 *636:39 *1345:A 23 
*END

*D_NET *637 0.00288648
*CONN
*I *1345:B I *D sky130_fd_sc_hd__nor2_2
*I *1346:A1 I *D sky130_fd_sc_hd__a211o_2
*I *1391:A0 I *D sky130_fd_sc_hd__mux2_1
*I *1474:Q O *D sky130_fd_sc_hd__dfxtp_2
*CAP
1 *1345:B 0
2 *1346:A1 6.78377e-05
3 *1391:A0 5.86003e-05
4 *1474:Q 0.000278289
5 *637:45 0.000370909
6 *637:26 0.000497347
7 *637:10 0.000278289
8 *1346:C1 *637:45 8.21988e-05
9 *1367:B1 *637:45 5.79559e-05
10 *46:20 *637:10 7.57281e-06
11 *84:10 *637:10 0
12 *355:10 *637:10 0
13 *361:18 *637:45 5.79559e-05
14 *399:16 *1346:A1 0.000117499
15 *399:16 *637:26 9.87624e-05
16 *456:52 *637:10 0.000276557
17 *552:59 *637:45 0
18 *596:100 *1346:A1 0.000180212
19 *596:100 *637:26 0.000194055
20 *636:39 *637:45 0.000262434
*RES
1 *1474:Q *637:10 42.205 
2 *637:10 *1391:A0 38 
3 *1391:A0 *637:26 25.5479 
4 *637:26 *1346:A1 25.5479 
5 *637:26 *637:45 36.67 
6 *637:45 *1345:B 23 
*END
